<?xml version="1.0" encoding="UTF-8"?>
<xrdMeasurements xmlns="http://www.xrdml.com/XRDMeasurement/1.7" xmlns:xsi="http://www.w3.org/2001/XMLSchema-instance" xsi:schemaLocation="http://www.xrdml.com/XRDMeasurement/1.7 http://www.xrdml.com/XRDMeasurement/1.7/XRDMeasurement.xsd" status="Completed">
	<comment>
		<entry>Configuration=Conf. Reflection-transmission spinner, Owner=User-1, Creation date=2/28/2018 8:43:02 AM</entry>
		<entry>Goniometer=Theta/Theta; Minimum step size 2Theta:0.0001; Minimum step size Omega:0.0001</entry>
		<entry>Sample stage=Reflection-transmission spinner; Minimum step size Phi:0.1</entry>
		<entry>Diffractometer system=EMPYREAN</entry>
		<entry>Measurement program=C:\PANalytical\Data Collector\Programs\sample-1.xrdmp, Identifier={BB6687EE-8248-4E06-B0C7-67735DEB5D7E}</entry>
		<entry>Batch program=C:\PANalytical\Data Collector\Programs\P3.xrdmp, Identifier={110013A4-273B-4C82-A4D1-871885B7687B}</entry>
	</comment>
	<sample type="To be analyzed">
		<id></id>
		<name></name>
		<preparedBy></preparedBy>
	</sample>
	<xrdMeasurement measurementType="Scan" status="Completed" sampleMode="Reflection">
		<comment>
			<entry>PHD Lower Level = 4.02 (keV), PHD Upper Level = 11.27 (keV)</entry>
		</comment>
		<usedWavelength intended="K-Alpha 1">
			<kAlpha1 unit="Angstrom">1.5405980</kAlpha1>
			<kAlpha2 unit="Angstrom">1.5444260</kAlpha2>
			<kBeta unit="Angstrom">1.3922500</kBeta>
			<ratioKAlpha2KAlpha1>0.5000</ratioKAlpha2KAlpha1>
		</usedWavelength>
		<incidentBeamPath>
			<radius unit="mm">240.00</radius>
			<xRayTube id="1010048" name="Empyrean Cu LFF HR (9430 033 7310x) DK427586">
				<tension unit="kV">40.0</tension>
				<current unit="mA">40.0</current>
				<anodeMaterial>Cu</anodeMaterial>
				<focus type="Line">
					<length unit="mm">12.0</length>
					<width unit="mm">0.4</width>
					<takeOffAngle unit="deg">4.4</takeOffAngle>
				</focus>
			</xRayTube>
			<xRayMirror id="27020009" name="Bragg-Brentano HD" hybrid="false">
				<crystal type="Graded" shape="Flat">BB/HD</crystal>
				<acceptanceAngle unit="deg">0.800</acceptanceAngle>
				<length unit="mm">55.3</length>
			</xRayMirror>
			<sollerSlit id="21010002" name="Soller slits 0.04 rad.">
				<opening unit="rad">0.0400</opening>
			</sollerSlit>
			<mask id="22030009" name="Fixed mask 10 mm">
				<width unit="mm">10.00</width>
			</mask>
			<antiScatterSlit id="22010003" name="Fixed slit 1°" xsi:type="fixedAntiScatterSlitType">
				<height unit="mm">1.52</height>
			</antiScatterSlit>
			<divergenceSlit id="22010005" name="Fixed slit 1/4°" xsi:type="fixedDivergenceSlitType">
				<distanceToSample unit="mm">140.00</distanceToSample>
				<height unit="mm">0.38</height>
			</divergenceSlit>
		</incidentBeamPath>
		<diffractedBeamPath>
			<radius unit="mm">240.00</radius>
			<antiScatterSlit id="22090010" name="AS slit 8.0 mm (PIXcel)" xsi:type="fixedAntiScatterSlitType">
				<height unit="mm">8.00</height>
			</antiScatterSlit>
			<sollerSlit id="21020003" name="Large Soller slits 0.04 rad.">
				<opening unit="rad">0.0400</opening>
			</sollerSlit>
			<detector id="7010019" name="PIXcel1D-Medipix3 detector" xsi:type="rtmsDetectorType">
				<phd unit="%">
					<lowerLevel>25.0</lowerLevel>
					<upperLevel>70.0</upperLevel>
				</phd>
				<mode>Scanning</mode>
				<activeLength unit="deg">3.3482</activeLength>
			</detector>
		</diffractedBeamPath>
		<scan appendNumber="0" mode="Continuous" scanAxis="Gonio" status="Completed">
			<header>
				<startTimeStamp>2025-12-28T16:20:47+08:00</startTimeStamp>
				<endTimeStamp>2025-12-28T16:32:19+08:00</endTimeStamp>
				<author>
					<name>User</name>
				</author>
				<source>
					<applicationSoftware version="5.5a">Data Collector</applicationSoftware>
					<instrumentControlSoftware version="7.9j 20171025">EMPYREAN</instrumentControlSoftware>
					<instrumentID>0000000011214615</instrumentID>
				</source>
			</header>
			<dataPoints>
				<positions axis="2Theta" unit="deg">
					<startPosition>6.00558257</startPosition>
					<endPosition>75.99655438</endPosition>
				</positions>
				<positions axis="Omega" unit="deg">
					<startPosition>3.00279129</startPosition>
					<endPosition>37.99827719</endPosition>
				</positions>
				<positions axis="Phi" unit="deg">
					<commonPosition>0.0</commonPosition>
				</positions>
				<commonCountingTime unit="seconds">13.770</commonCountingTime>
				<intensities unit="counts">424 419 448 420 441 406 425 419 427 404 418 421 420 450 439 440 412 414 440 410 442 429 447 423 398 414 424 424 400 454 382 443 378 396 423 438 402 431 416 376 418 386 406 396 438 420 432 427 406 409 423 451 416 396 445 385 427 400 397 413 376 432 361 415 423 397 415 452 392 403 403 422 393 404 396 436 420 427 407 402 351 413 409 398 397 420 417 426 364 421 408 385 369 411 376 392 389 408 403 425 385 366 400 388 406 388 422 393 420 361 412 373 391 406 402 417 408 412 429 401 387 395 405 375 426 415 390 418 394 366 399 410 407 409 401 392 419 394 412 420 375 374 428 397 379 387 394 384 367 403 391 356 432 415 367 381 371 387 372 368 383 402 366 370 405 415 381 391 382 386 418 438 367 415 371 384 376 404 368 367 403 366 391 388 338 353 414 395 354 412 379 388 378 394 392 368 372 424 373 369 405 383 379 370 396 368 363 386 408 362 402 371 325 380 372 376 355 359 342 362 371 388 397 377 360 391 343 364 390 395 379 356 381 370 358 351 375 346 385 344 357 352 342 395 383 368 358 372 361 394 407 371 386 370 367 367 374 404 405 379 378 343 392 366 401 361 356 380 348 361 370 353 384 355 378 355 360 373 395 380 348 363 403 351 393 359 380 360 333 381 385 357 356 386 331 327 376 372 347 365 350 362 374 333 362 377 371 368 336 366 376 383 338 350 405 350 397 375 382 374 340 342 374 361 352 344 354 344 367 361 357 362 365 342 347 356 315 364 359 361 327 361 357 374 359 318 351 366 372 364 330 350 355 379 362 360 371 369 364 352 382 374 367 359 365 357 380 354 349 374 360 349 354 355 299 373 377 340 328 369 353 350 381 344 338 376 320 393 334 364 334 346 354 355 353 366 358 342 311 345 377 377 328 364 365 358 339 374 399 364 330 361 313 363 348 343 298 321 314 367 355 380 354 293 354 338 314 336 325 347 323 327 361 345 351 349 331 306 358 345 377 372 327 323 373 342 378 318 349 321 330 326 327 346 363 363 344 354 341 324 335 350 356 342 360 359 363 338 383 341 338 363 335 341 314 349 327 335 361 354 325 327 330 352 319 346 347 360 304 333 315 322 346 328 327 340 318 323 330 335 350 332 355 321 311 353 317 363 372 311 338 332 352 329 372 345 340 325 319 340 324 341 359 349 319 369 337 358 353 300 331 346 351 360 329 303 342 344 356 319 328 315 322 330 325 381 370 288 336 361 333 329 339 328 338 323 311 327 365 316 330 316 307 350 304 343 318 333 353 330 343 315 337 330 327 308 324 337 325 306 310 321 321 347 309 323 324 329 296 359 335 356 318 327 296 291 353 336 326 320 318 319 328 305 350 307 337 331 321 325 324 342 305 294 321 313 324 316 303 339 312 341 313 311 359 309 365 304 319 310 316 327 314 294 298 316 319 315 323 317 289 316 331 324 322 288 309 320 330 302 324 339 331 337 280 327 334 273 337 323 304 303 304 301 328 319 317 302 299 309 301 331 319 309 299 325 343 317 309 267 301 331 337 310 319 319 299 324 326 294 321 291 303 315 313 349 299 281 328 294 358 317 306 326 293 323 285 287 332 332 293 328 320 299 285 302 308 324 313 322 312 292 315 336 303 279 301 322 300 276 300 305 309 315 330 294 302 287 326 344 322 318 315 297 338 298 284 324 331 311 305 308 299 312 302 274 282 309 321 322 309 319 299 315 297 309 303 302 265 298 270 301 297 318 330 271 308 310 289 287 246 282 308 305 319 294 303 288 297 290 292 284 301 318 296 299 312 267 341 286 323 279 293 265 307 263 334 283 294 285 277 313 298 320 257 298 287 319 312 297 285 281 305 325 330 312 316 276 319 305 300 310 310 319 314 277 286 303 319 303 284 285 279 321 284 299 300 345 294 289 308 308 295 306 306 302 289 296 302 286 274 319 326 300 289 280 309 261 323 286 305 301 301 279 309 282 278 270 313 273 300 298 311 288 268 282 282 288 285 308 296 287 293 285 280 309 280 324 275 294 273 280 275 288 285 293 263 273 291 292 304 240 300 322 310 297 297 311 266 301 309 270 296 287 296 308 282 300 306 291 287 318 262 299 331 306 297 296 309 288 288 281 271 295 288 284 298 281 280 306 292 280 293 284 274 279 269 292 287 257 244 287 279 299 284 302 267 291 268 280 246 298 278 301 303 308 267 306 269 307 307 288 304 290 264 290 267 295 276 295 296 263 301 269 287 287 305 287 292 289 271 302 271 304 295 248 295 283 296 269 273 275 256 273 296 291 305 296 279 268 281 280 291 283 288 296 275 266 247 289 280 284 302 290 283 274 287 247 272 293 295 304 277 297 271 305 276 263 309 257 266 288 281 273 309 271 308 238 293 296 271 246 239 268 249 295 289 274 243 311 267 259 270 301 293 323 328 290 293 276 279 263 284 288 266 276 285 278 290 275 302 282 269 287 275 274 266 273 289 276 279 244 308 262 266 276 310 297 300 266 279 243 284 238 269 245 285 298 248 284 276 297 279 281 215 264 270 249 270 271 279 269 297 281 263 322 257 287 275 276 294 262 277 273 275 285 269 262 278 286 272 265 298 273 269 290 267 264 270 289 267 268 232 304 257 273 267 303 245 241 257 268 256 286 282 286 284 266 223 236 266 229 250 264 246 243 245 241 276 245 272 275 282 258 246 261 256 273 277 296 287 258 263 249 296 282 266 245 293 270 267 307 276 242 275 266 259 272 266 272 247 263 294 268 293 298 275 248 222 240 290 277 247 260 272 265 261 246 283 256 273 264 274 269 280 251 270 259 287 283 265 270 244 279 266 249 271 256 269 259 276 272 250 281 237 246 233 238 276 268 259 259 268 285 275 232 238 284 247 263 273 269 237 231 257 243 263 242 264 242 263 260 258 277 244 239 259 239 262 261 232 245 240 246 262 238 228 271 238 279 275 230 242 227 281 229 269 259 237 261 229 256 239 241 271 236 226 212 273 259 281 242 281 256 282 248 257 257 243 251 225 260 227 233 246 226 249 269 290 239 260 240 240 270 257 232 260 246 261 287 282 263 263 228 234 243 248 215 266 232 266 239 238 249 259 232 227 237 234 240 263 267 246 233 225 288 228 245 242 237 216 232 231 245 189 291 247 259 258 225 232 294 233 277 263 260 268 274 239 231 245 245 241 230 266 223 279 243 229 243 249 261 239 235 214 223 266 237 258 244 304 241 233 261 238 224 272 244 235 213 231 247 243 228 264 224 233 250 226 248 244 256 269 242 231 251 237 257 238 263 278 233 243 247 262 229 205 274 212 237 249 256 240 241 233 228 247 241 259 228 268 266 234 232 267 267 239 279 250 245 256 258 216 238 290 262 244 291 241 248 264 248 263 260 272 272 257 279 275 288 274 281 284 278 288 294 292 278 238 291 285 281 289 284 293 280 335 286 305 326 332 329 345 331 333 320 363 393 370 375 393 365 437 404 409 425 460 468 448 478 486 497 500 515 586 577 557 586 687 666 694 709 755 758 799 850 899 918 1052 1002 1100 1063 1221 1261 1258 1362 1471 1426 1556 1619 1676 1702 1730 1765 1836 1757 1776 1707 1652 1612 1596 1444 1403 1270 1177 1117 1000 928 891 724 699 618 582 528 532 510 455 411 384 391 374 353 383 340 352 366 328 324 336 330 258 308 314 309 284 299 319 268 276 264 291 317 286 271 235 312 292 271 308 281 226 288 260 249 256 293 235 259 271 270 244 238 220 219 222 244 268 238 284 267 283 257 236 230 247 241 263 250 270 256 272 223 232 247 219 268 248 260 229 262 241 236 241 234 250 237 234 266 222 241 232 236 258 231 256 202 244 246 233 258 227 229 228 234 221 250 224 237 216 213 244 249 236 242 233 283 240 241 201 261 236 223 247 217 223 217 236 243 208 202 208 225 223 214 266 230 232 244 224 232 250 219 227 218 222 236 245 211 212 212 244 230 224 237 238 224 233 232 221 219 218 219 199 216 233 222 237 211 228 239 233 236 213 214 243 232 241 225 212 204 198 234 215 216 237 228 208 220 222 220 214 221 198 244 218 232 218 241 243 214 215 245 223 239 245 256 227 234 216 223 208 225 202 224 208 256 214 238 224 224 219 225 217 225 235 223 227 226 256 216 225 245 228 231 202 227 224 244 229 210 219 242 193 238 231 214 236 232 220 208 217 243 209 231 236 233 208 245 204 221 239 204 202 197 224 237 243 220 197 226 222 227 209 242 219 272 219 225 225 213 218 204 217 186 245 232 231 221 224 184 232 227 238 231 233 219 187 220 209 207 216 201 237 196 227 210 217 194 219 222 218 203 210 221 214 228 223 238 203 234 206 247 220 234 204 220 206 229 222 240 242 224 236 220 237 228 214 216 201 249 200 233 216 215 183 241 210 226 217 218 222 212 250 198 213 184 205 226 234 222 223 199 202 196 218 232 222 229 231 228 221 218 217 241 212 215 209 214 212 215 209 212 218 212 234 211 203 230 216 215 225 218 221 217 207 212 237 235 222 229 211 223 237 223 205 207 229 221 215 191 224 217 209 234 212 221 219 214 206 208 202 224 232 207 240 217 199 223 204 196 223 186 203 194 248 241 235 203 191 205 230 203 222 240 221 217 198 209 198 206 229 199 185 216 218 217 222 220 225 198 202 222 192 216 186 225 229 220 223 212 218 200 202 212 236 221 212 199 210 221 207 205 227 237 213 216 205 206 223 185 205 223 218 199 227 240 203 192 221 201 214 216 197 190 234 203 238 227 206 185 221 208 218 211 240 195 215 188 194 217 187 229 211 217 199 206 206 217 191 210 224 207 222 207 215 190 234 220 204 219 226 192 219 179 200 229 200 210 222 222 222 195 246 188 204 197 212 197 200 232 203 211 193 199 200 204 222 204 231 223 197 175 225 215 224 182 189 221 181 218 214 205 221 213 206 213 214 222 206 220 195 210 213 231 213 201 213 192 216 186 202 191 210 229 209 178 208 189 214 214 190 207 214 205 208 208 179 210 202 248 208 188 191 206 222 200 235 202 218 185 206 208 196 169 194 188 207 181 195 214 213 193 192 199 197 205 213 203 196 213 190 227 192 194 219 222 195 201 201 229 192 204 194 181 218 209 194 234 211 214 190 225 186 188 196 175 190 189 230 202 198 166 202 231 204 194 191 209 204 186 207 180 211 188 231 203 225 203 206 200 201 204 245 209 191 217 201 196 193 201 207 185 209 229 187 193 195 211 201 175 213 187 186 199 191 185 182 190 205 172 190 219 201 190 203 161 194 160 201 194 199 185 203 213 195 181 202 192 189 171 198 205 172 175 191 220 212 214 209 203 191 209 197 193 201 192 211 190 203 199 195 182 202 207 184 183 201 194 152 199 193 160 199 190 199 181 190 205 201 198 196 210 207 182 224 176 194 204 187 195 198 204 205 182 194 191 199 175 175 181 190 216 177 192 196 182 189 195 206 207 180 156 175 190 166 208 175 180 193 202 185 176 162 171 216 180 178 184 184 211 200 176 160 180 190 198 199 174 176 196 180 175 188 168 199 214 185 180 189 188 173 191 178 187 188 175 184 167 175 196 212 163 201 199 184 182 190 188 140 199 194 166 149 195 173 186 181 185 185 161 179 177 186 171 183 209 170 168 186 171 183 203 196 188 168 182 178 188 187 192 183 176 190 191 167 195 179 180 154 168 200 167 155 175 159 175 209 178 175 188 182 196 188 155 167 169 158 167 197 177 164 189 170 177 156 185 186 158 168 172 174 194 148 176 177 155 188 160 167 188 167 170 176 182 183 169 162 156 160 178 163 179 158 177 179 178 141 161 177 179 202 184 173 195 181 175 144 161 175 198 181 184 159 152 157 170 173 163 177 164 191 179 166 157 163 200 154 175 170 180 165 157 191 168 180 163 184 181 188 159 180 171 203 185 177 180 170 184 198 180 179 205 163 179 170 184 159 192 184 175 190 168 207 171 196 208 182 201 192 190 200 179 209 192 200 181 175 191 215 224 193 200 194 178 196 203 174 195 194 211 164 182 193 192 187 181 179 196 182 159 195 185 159 191 175 159 175 186 175 181 172 155 183 203 172 176 152 164 191 189 177 197 177 181 151 165 203 156 194 171 155 159 158 190 168 180 167 154 181 182 175 169 164 164 176 189 179 149 170 174 179 142 169 146 173 179 176 165 167 144 160 176 166 156 167 139 180 191 157 169 194 194 175 148 168 162 158 162 168 186 178 178 194 170 166 174 173 187 186 159 161 183 177 191 178 159 174 164 174 174 172 152 165 194 183 158 176 177 172 202 156 155 172 165 175 147 169 172 152 155 153 158 172 174 174 152 165 148 166 150 171 175 182 151 176 163 149 176 161 156 161 156 156 161 163 154 179 170 166 180 156 180 172 181 181 183 164 148 202 152 171 178 163 176 178 174 170 194 184 136 166 177 140 168 171 192 177 193 163 189 170 164 167 176 145 181 181 169 171 172 212 178 163 198 162 147 154 165 166 168 172 191 186 140 182 176 194 170 173 183 162 192 179 178 210 173 176 167 181 186 206 189 179 200 187 200 184 197 187 211 191 212 168 203 181 193 169 214 188 204 193 232 191 177 209 203 213 178 220 202 236 260 198 226 270 218 245 266 271 209 250 295 300 306 326 318 350 355 383 436 412 447 469 478 530 585 520 637 634 682 767 791 803 863 888 1010 1033 1080 1042 1116 1155 1143 1145 1118 1181 1199 1176 1145 1147 1072 1116 1011 1011 910 873 862 816 723 717 670 639 599 611 563 543 512 465 440 443 419 446 422 405 420 449 434 408 399 417 431 409 448 455 475 477 436 480 491 537 526 538 617 600 617 706 704 727 737 804 835 887 939 924 993 1058 1109 1201 1222 1326 1295 1428 1402 1515 1460 1542 1599 1660 1586 1616 1619 1660 1639 1697 1672 1641 1586 1567 1615 1630 1753 1666 1678 1801 1773 1755 1827 1897 1885 2048 1990 2015 2068 2038 2022 1994 2088 2038 1961 1842 1830 1791 1658 1670 1588 1528 1383 1278 1289 1229 1099 1113 1016 924 877 845 727 684 675 659 604 574 530 524 464 450 437 429 465 416 397 424 385 362 360 334 335 352 314 304 319 308 292 300 284 244 271 251 272 275 267 266 233 244 236 249 266 251 224 231 203 223 210 218 227 222 214 173 206 194 213 227 204 190 221 187 211 190 214 209 200 197 169 173 190 194 187 168 176 193 173 180 189 187 205 186 175 182 179 152 181 159 189 185 178 194 191 174 194 143 181 176 161 155 172 170 175 170 168 171 172 179 171 176 175 168 165 145 168 170 160 174 162 143 182 178 158 160 158 161 145 156 139 156 163 159 169 186 157 159 132 157 151 159 176 153 165 169 185 163 150 171 176 118 161 140 174 153 159 143 148 155 151 153 152 187 179 149 141 174 155 165 178 164 157 170 150 155 163 136 167 176 148 172 152 146 153 149 142 136 134 147 140 152 152 160 146 147 153 147 154 136 153 139 151 147 145 150 144 146 150 150 142 171 146 161 158 139 165 159 150 128 159 158 134 148 149 145 142 179 136 158 155 152 167 156 143 147 164 172 145 154 147 154 138 147 155 149 149 149 146 123 155 140 174 155 154 143 163 149 151 138 149 144 131 159 143 137 152 129 171 152 174 150 141 143 154 158 122 163 145 151 145 145 157 167 150 139 134 153 152 149 151 127 144 146 158 170 154 160 168 123 168 124 155 147 145 172 151 133 163 163 144 153 140 145 171 145 141 149 144 149 155 150 124 144 153 153 120 125 134 169 138 142 126 145 144 133 140 134 153 155 139 143 137 136 144 152 160 148 145 171 136 156 162 147 137 138 143 146 154 142 164 141 155 131 147 139 142 139 132 130 123 138 141 133 151 122 134 154 138 161 159 129 152 140 148 145 144 151 145 148 143 155 140 121 150 143 141 136 138 159 124 136 150 157 151 162 131 142 146 123 145 155 129 148 132 138 185 146 129 158 129 155 140 136 155 159 133 139 158 149 137 132 143 156 151 160 162 137 118 148 140 149 148 123 130 143 135 130 146 133 145 151 150 141 161 144 153 147 144 159 134 109 151 137 140 141 132 135 146 144 133 135 132 147 134 142 130 172 135 135 141 126 132 141 133 125 142 137 116 159 131 149 127 147 158 126 145 117 166 149 128 135 121 139 143 126 132 142 134 142 133 117 154 148 124 144 145 132 127 143 136 143 133 113 155 112 136 143 149 137 148 169 116 175 153 132 117 138 138 135 133 147 149 136 137 135 167 136 145 152 141 121 125 124 142 138 121 149 137 140 158 124 118 132 140 129 138 158 148 133 143 125 148 141 154 142 144 127 125 135 134 129 128 130 146 135 121 140 144 132 142 137 143 140 145 128 130 129 126 143 154 132 141 152 140 147 137 134 135 118 134 132 119 143 126 166 128 132 117 163 133 128 134 130 149 147 149 127 129 144 133 154 132 150 133 130 125 132 127 144 168 137 144 145 135 128 137 148 132 137 144 155 119 161 146 166 170 146 172 149 150 158 165 136 167 154 149 196 182 171 163 198 191 204 165 201 208 219 217 212 233 208 268 276 282 312 324 302 329 327 392 357 374 392 411 414 447 434 503 511 522 494 560 518 553 525 520 583 509 484 467 460 477 437 441 441 437 440 374 361 325 337 314 298 280 246 242 256 226 242 239 230 199 222 209 217 199 178 179 196 172 165 180 198 178 160 168 179 179 177 157 150 155 164 155 162 177 192 186 162 175 168 134 164 168 152 162 163 159 172 144 158 178 171 161 163 172 145 152 150 186 163 174 176 161 189 149 181 170 169 172 175 158 167 183 176 157 192 178 181 169 151 161 163 144 170 140 146 141 168 175 151 141 142 147 143 146 144 136 158 157 144 136 149 155 129 134 142 156 156 137 140 141 129 140 156 146 143 142 140 136 149 123 123 138 139 135 139 141 127 126 122 135 137 132 143 129 135 143 138 143 126 136 143 138 131 146 150 138 142 134 137 164 141 120 137 159 144 153 132 140 146 130 117 148 146 132 153 121 140 141 132 124 159 152 139 134 145 140 145 143 137 134 156 127 139 171 134 146 137 150 112 133 126 116 141 142 145 144 137 140 141 131 141 125 157 131 126 130 143 140 129 144 128 176 129 163 156 151 139 134 131 131 137 141 126 142 131 149 126 154 150 153 139 149 165 125 166 129 140 142 171 158 145 155 156 153 154 138 164 158 152 107 150 152 152 167 163 152 152 160 165 165 127 140 151 170 169 181 179 186 185 186 190 161 185 190 191 214 188 184 217 217 196 215 207 199 203 215 237 218 221 240 266 241 292 316 333 321 312 348 332 363 364 391 417 431 440 465 513 466 535 579 622 611 679 745 752 777 781 829 841 874 851 913 895 931 926 956 912 944 924 941 926 923 916 824 853 841 778 777 695 688 633 646 572 524 555 541 510 429 461 428 367 374 329 325 317 296 276 272 269 198 250 237 219 223 202 201 227 199 199 187 179 192 175 183 164 186 173 173 174 174 174 193 159 129 156 184 152 178 147 170 154 185 161 147 151 165 152 144 143 135 159 139 147 138 149 151 150 142 153 154 170 111 155 162 163 124 134 135 155 147 138 176 125 147 156 130 142 142 138 108 150 141 153 132 145 128 129 126 152 129 136 134 137 145 145 128 131 169 123 133 145 159 134 127 147 144 135 131 144 147 151 140 143 127 132 148 121 143 154 172 137 142 144 126 129 136 132 126 129 120 153 148 126 144 156 141 151 152 129 133 139 161 149 123 133 162 161 140 153 154 156 134 126 135 156 136 144 137 136 139 155 140 136 160 140 161 147 131 142 146 135 142 139 138 140 170 156 143 147 170 135 145 166 157 163 149 137 169 142 192 168 175 172 154 166 165 151 173 154 156 190 177 171 189 166 206 177 189 196 174 190 172 187 178 197 223 201 233 215 272 233 246 274 244 238 256 259 277 293 304 315 304 311 342 384 388 371 370 411 489 445 550 544 578 606 596 691 710 841 811 952 981 1060 1090 1172 1221 1331 1338 1415 1525 1576 1564 1698 1766 1804 1886 1853 1858 1886 1861 1829 1865 1970 1982 1895 1879 1874 1856 1940 1813 1837 1858 1771 1722 1716 1638 1542 1546 1505 1443 1371 1361 1256 1261 1135 1015 1007 983 952 836 858 785 807 684 655 613 592 552 516 492 489 463 464 455 420 409 355 369 332 317 360 352 322 284 299 250 290 282 267 245 284 240 256 236 228 270 246 247 236 232 224 216 210 229 202 239 207 189 215 202 214 202 207 186 198 188 199 178 232 190 217 221 205 195 185 208 189 203 198 183 170 183 207 191 180 155 184 173 176 176 208 163 178 180 169 182 185 162 165 166 164 172 154 163 149 159 143 148 160 142 156 158 151 155 133 147 153 143 137 155 151 147 121 145 146 162 153 146 152 133 119 148 131 132 142 141 142 132 145 138 128 150 131 142 138 142 133 140 149 143 126 152 141 117 135 145 146 142 142 158 155 133 145 136 148 134 141 112 147 114 132 130 146 127 144 161 124 141 153 120 142 156 144 115 137 127 133 125 134 139 140 143 121 137 116 114 156 128 153 109 143 128 143 160 126 130 140 156 132 113 157 127 118 126 138 131 129 126 151 151 141 127 134 127 137 143 139 158 150 154 170 138 176 158 170 181 162 163 188 182 166 173 139 173 171 180 199 178 183 207 213 202 192 219 212 226 249 229 240 226 281 259 268 280 306 300 333 329 321 298 341 333 359 395 348 368 394 350 377 385 318 328 351 298 303 328 329 307 313 278 265 248 276 263 266 234 242 222 266 234 233 225 218 190 197 179 188 181 173 178 182 168 158 193 154 163 164 196 157 159 142 161 157 177 149 173 164 183 182 173 178 177 161 173 151 155 185 188 178 196 180 179 182 187 193 187 196 210 197 236 265 267 242 285 292 292 339 356 382 365 395 415 507 483 563 526 567 632 665 712 708 728 689 745 771 682 694 708 689 686 703 687 701 675 604 610 615 556 567 524 501 527 451 422 435 380 354 357 324 340 302 278 274 223 271 242 202 223 207 229 177 211 192 157 170 176 173 157 163 153 157 162 137 142 127 149 164 130 162 152 156 162 149 133 176 142 160 150 138 132 150 136 148 151 137 143 147 139 134 137 134 147 145 133 138 147 126 137 136 144 115 120 112 114 126 123 128 110 132 116 118 150 121 136 154 155 148 127 115 153 124 135 127 149 134 134 125 123 146 147 143 136 138 150 140 137 103 126 119 124 119 132 114 122 149 126 121 130 156 124 111 128 142 156 132 134 142 126 133 147 160 155 160 145 145 141 125 132 155 145 121 127 153 153 143 150 156 143 140 124 149 139 154 148 164 147 151 183 151 174 177 185 184 152 146 165 175 190 181 185 201 230 203 226 230 218 244 220 241 249 258 256 296 262 286 264 305 293 337 316 359 311 390 374 393 387 413 423 374 461 429 412 449 459 464 460 436 432 455 494 440 457 455 438 475 402 434 427 398 419 383 371 367 365 339 359 313 305 301 298 280 283 282 286 258 267 245 240 233 214 198 202 196 187 186 183 200 184 162 155 184 160 180 136 175 179 157 159 132 174 139 150 153 148 138 126 154 147 144 122 122 131 124 142 136 139 122 133 128 128 128 124 108 129 124 117 134 140 125 129 119 141 141 134 148 118 117 151 145 132 119 129 141 112 122 135 128 114 136 139 118 112 110 111 131 121 128 133 124 122 111 120 113 122 139 150 123 123 128 127 146 106 112 119 129 134 127 130 97 109 115 125 147 109 129 125 126 115 118 140 127 109 124 135 135 132 133 116 131 120 128 131 130 126 115 134 106 121 133 148 142 141 125 125 121 118 144 118 131 137 134 130 116 128 110 120 139 130 145 129 134 140 150 134 156 130 146 155 137 152 149 161 150 137 171 148 163 156 141 161 169 158 191 189 183 208 193 200 232 209 213 233 228 229 265 247 262 274 299 302 342 331 378 367 354 386 404 430 495 498 490 508 601 603 680 638 720 746 770 820 916 896 952 976 1028 1026 1112 1093 1106 1093 1112 1144 1144 1168 1069 1069 1046 1008 1074 1009 1062 1017 967 930 892 921 865 847 804 752 756 707 656 689 577 581 521 495 513 456 428 436 390 360 309 336 317 300 296 313 298 286 242 240 244 260 242 227 216 223 200 176 207 185 184 211 170 211 198 167 164 159 158 163 155 156 177 148 163 155 163 166 160 158 150 146 151 145 148 159 134 148 127 129 143 136 156 130 134 122 151 151 145 141 146 129 125 136 135 120 142 139 133 120 137 136 132 129 113 153 152 124 150 132 121 129 142 151 153 137 123 150 131 130 140 132 131 150 142 125 132 158 117 150 143 125 133 137 127 125 130 135 121 131 120 126 135 129 137 113 130 134 113 133 128 137 119 136 121 134 124 122 138 123 126 124 120 117 136 122 143 110 124 133 121 120 113 123 126 106 132 116 138 118 142 118 126 152 118 137 124 142 155 140 138 141 125 142 138 146 119 151 127 132 114 139 121 137 115 160 143 143 158 141 142 160 161 134 137 161 157 176 145 162 172 169 183 176 195 176 205 182 193 208 165 206 194 205 237 246 265 237 272 280 276 283 309 324 280 289 339 362 362 374 380 387 425 472 407 476 469 477 460 466 505 527 526 579 571 565 555 573 516 521 525 525 537 542 511 476 449 465 452 473 419 432 421 465 414 397 377 396 356 360 354 348 368 326 301 306 354 269 280 282 271 282 273 250 269 249 244 268 241 233 265 232 217 220 235 236 228 203 224 238 243 224 244 233 211 229 214 265 263 237 249 263 240 290 300 268 306 295 323 345 357 388 407 385 428 458 475 543 508 644 580 651 744 806 819 900 930 1037 1124 1159 1201 1255 1342 1396 1423 1418 1455 1467 1459 1491 1506 1480 1517 1433 1439 1368 1346 1341 1366 1260 1332 1262 1236 1160 1178 1055 1057 998 978 902 859 845 784 733 665 657 621 549 532 480 509 475 443 427 418 362 342 373 282 287 302 259 235 239 243 223 224 239 220 212 219 221 162 209 198 177 184 182 177 188 182 170 150 163 170 169 150 152 161 154 149 159 164 144 147 164 126 141 149 139 126 127 147 140 149 121 154 129 149 128 119 132 149 155 138 149 147 141 130 126 143 130 127 136 142 116 147 160 126 144 122 133 133 131 121 137 146 137 129 125 118 117 136 124 118 123 133 118 119 137 135 103 139 113 130 138 144 132 117 129 135 130 136 112 125 136 119 119 123 134 130 144 133 129 148 117 125 116 132 100 130 116 127 148 122 127 132 141 137 151 141 145 140 128 155 157 144 155 146 131 169 150 140 162 163 150 162 151 143 143 153 144 170 177 169 147 171 155 175 131 155 155 148 150 149 140 138 149 149 169 146 132 159 149 132 128 135 117 164 129 142 126 136 124 149 135 137 119 127 137 116 135 148 142 119 116 139 117 108 124 101 147 125 137 130 122 113 114 104 123 127 126 141 103 123 124 120 125 138 123 124 122 126 105 130 130 124 96 103 114 117 142 118 108 118 133 137 115 108 134 144 121 136 106 114 122 114 116 112 134 121 126 133 109 106 112 125 112 137 112 111 114 139 120 104 121 117 102 126 135 120 129 138 120 113 111 101 121 107 118 128 125 129 120 123 124 134 103 124 109 123 100 125 128 133 121 115 118 113 128 129 102 129 127 135 122 120 111 119 135 110 112 103 122 122 108 133 115 121 122 106 136 117 112 116 122 126 119 116 111 118 124 107 121 133 121 117 119 112 109 107 94 134 122 131 102 114 114 117 102 125 126 139 107 114 118 118 122 122 114 123 118 133 129 125 132 136 128 129 127 133 127 132 130 123 139 133 113 142 148 133 141 144 163 157 137 128 130 130 128 122 132 131 152 126 139 117 168 131 125 133 126 137 123 145 134 144 130 152 126 119 135 124 131 134 125 126 113 121 135 118 115 124 116 110 118 137 121 111 101 125 133 123 109 103 109 106 128 101 96 123 112 106 103 116 128 118 107 129 124 110 127 120 116 112 98 131 111 117 115 124 98 109 97 113 129 119 113 95 129 121 119 118 127 120 122 125 114 133 118 116 124 118 99 111 112 123 105 120 108 131 129 114 108 126 117 120 88 134 109 110 108 115 140 122 144 111 111 135 111 126 116 119 113 115 109 125 129 129 108 149 123 112 105 115 115 122 115 116 115 127 134 132 141 133 122 122 122 130 114 130 130 121 138 126 121 135 123 145 129 154 129 118 127 144 132 148 132 137 126 158 127 132 124 142 130 132 150 128 152 145 133 136 133 156 137 135 156 151 143 137 147 147 140 145 128 149 131 152 171 162 145 150 149 134 125 138 179 110 150 144 135 146 124 141 137 114 138 150 139 119 132 139 132 147 138 153 151 135 145 155 129 127 165 153 144 150 132 131 128 126 160 153 149 165 153 146 148 158 153 154 140 141 170 166 154 175 167 166 183 180 188 170 183 209 192 202 203 207 209 203 194 182 228 185 215 198 207 226 189 172 214 215 198 220 196 232 208 199 204 190 204 213 199 194 190 199 190 193 199 197 187 204 181 206 170 175 187 168 176 197 188 179 160 211 163 181 184 171 149 194 179 185 173 174 166 168 154 164 166 160 147 176 166 165 177 167 152 176 164 148 152 153 180 156 168 157 169 164 148 146 141 132 155 155 157 156 117 145 146 146 148 137 144 152 126 142 131 145 142 147 143 150 172 119 166 152 146 129 157 129 141 145 148 140 127 143 129 149 127 147 150 135 150 149 135 126 119 128 147 140 147 133 149 140 155 130 155 149 141 126 149 152 147 123 132 140 128 159 148 125 142 153 156 136 151 168 161 159 167 137 157 162 136 198 175 147 177 147 178 151 173 161 172 167 145 162 167 176 167 159 154 161 182 166 195 166 147 197 176 196 168 168 192 184 192 197 192 216 200 204 224 211 233 218 202 220 237 229 257 241 225 243 247 241 245 224 241 276 273 274 262 257 220 237 274 256 264 247 246 239 250 244 233 239 256 208 208 240 225 223 214 225 222 211 241 207 206 188 186 195 201 189 179 188 174 160 168 187 170 163 152 191 152 154 148 147 148 169 166 144 144 113 137 154 170 138 139 138 126 139 129 138 135 114 151 125 125 152 133 127 113 108 134 123 116 130 138 111 132 121 102 115 125 119 118 130 114 119 128 126 99 127 119 99 141 99 106 125 100 115 123 100 125 128 116 116 112 114 118 108 100 100 124 119 125 135 115 108 114 114 114 121 113 106 125 102 113 121 119 113 107 124 103 126 128 116 110 116 129 103 126 120 111 138 134 110 107 108 110 94 115 89 127 105 100 120 121 99 107 117 135 126 114 100 121 104 121 124 105 112 112 117 128 141 116 116 119 105 117 122 100 125 116 121 131 109 114 119 112 127 113 100 126 113 126 121 128 112 147 106 132 90 123 140 115 118 125 125 111 130 146 102 123 130 138 117 138 116 100 107 112 114 118 101 102 87 120 123 123 110 113 121 123 128 120 112 104 107 131 137 142 123 107 108 98 136 101 151 118 125 120 116 125 114 124 111 128 128 109 115 120 108 116 113 105 102 116 115 97 117 95 116 125 101 105 106 111 108 112 118 121 126 112 109 102 99 130 98 104 120 133 115 92 103 107 103 120 113 104 108 114 129 112 114 113 119 127 124 125 114 103 103 109 111 122 128 105 135 112 96 105 110 109 101 119 113 116 111 103 113 122 122 110 120 109 112 110 120 116 112 104 125 117 127 114 101 112 129 99 107 119 90 111 119 134 117 122 92 116 115 117 120 110 107 108 109 113 125 107 109 104 123 113 115 105 112 133 103 101 115 117 94 118 124 107 112 115 112 126 137 103 127 109 111 122 117 116 132 122 127 122 111 112 119 122 133 109 125 104 110 127 133 140 136 133 114 132 117 124 127 108 134 123 130 156 138 127 160 145 157 132 160 152 133 155 139 160 154 167 138 174 193 166 187 183 170 229 233 234 217 244 262 258 275 306 277 330 329 351 359 388 430 477 467 477 539 530 574 565 601 545 630 646 615 598 633 658 647 619 648 657 657 585 640 628 569 625 575 576 591 589 547 551 510 507 502 552 503 463 494 463 437 436 394 357 381 365 345 316 321 303 328 279 292 261 268 246 234 245 233 206 206 190 179 183 176 181 203 186 164 166 166 163 164 176 131 154 156 143 137 128 145 142 153 148 136 139 120 135 137 128 140 135 146 120 131 141 104 129 141 136 125 130 141 135 139 126 129 142 123 129 111 120 130 121 116 154 124 139 136 130 142 124 141 132 138 138 140 144 139 122 141 134 132 138 154 155 150 154 162 134 143 172 155 156 140 149 174 157 160 195 167 172 178 180 207 185 179 204 187 186 201 202 166 209 187 217 182 212 227 225 220 227 198 222 246 242 235 225 234 218 216 237 230 241 231 237 232 209 225 264 229 271 265 266 274 246 269 300 295 276 288 285 267 282 281 300 256 281 298 320 291 290 341 284 292 341 307 306 278 311 295 316 281 283 316 307 347 345 301 293 261 303 322 310 280 303 299 322 281 277 280 279 265 284 304 274 304 259 237 240 260 217 235 229 279 260 229 227 234 224 218 218 202 217 200 179 211 184 185 203 204 208 173 174 189 173 170 190 167 168 156 158 141 152 142 149 147 177 138 144 120 167 139 164 142 145 137 137 150 153 142 138 123 132 107 118 113 114 131 121 138 132 143 120 130 146 143 137 128 118 128 107 112 104 115 100 101 120 117 90 130 117 125 127 108 129 88 103 111 122 108 109 102 127 116 110 135 103 111 110 137 124 108 84 101 112 122 111 120 120 101 117 114 130 94 124 79 106 107 110 100 108 96 112 104 103 109 95 102 127 129 112 108 107 94 108 117 106 105 123 100 124 90 121 106 85 103 96 91 107 108 107 113 112 110 99 100 104 120 109 97 105 116 118 104 72 139 83 109 83 100 115 90 122 97 103 104 96 117 123 104 112 119 109 126 97 110 111 95 114 129 98 112 109 127 107 123 124 127 110 101 116 112 95 99 98 111 114 83 105 92 92 103 89 109 107 99 110 110 95 112 101 102 132 94 94 119 134 119 94 117 120 104 99 110 106 98 108 113 108 119 119 123 110 103 102 104 109 109 96 119 113 104 111 91 100 106 116 100 105 119 105 103 105 101 119 84 94 110 104 102 100 111 112 94 105 131 128 94 102 105 102 109 91 107 106 125 117 106 110 112 108 114 106 102 113 110 118 97 93 107 107 115 108 103 117 108 119 94 93 92 114 116 110 101 117 105 101 91 97 92 116 118 107 112 111 117 103 119 90 114 106 101 108 97 101 128 119 92 121 96 107 96 102 112 105 110 117 113 99 123 77 126 99 114 112 103 120 110 101 107 102 102 122 136 120 117 97 106 101 131 99 105 99 123 122 115 107 117 117 101 129 107 101 113 108 121 108 107 117 128 120 109 104 135 107 98 106 121 119 123 114 115 119 113 117 117 98 121 111 106 127 125 111 128 114 107 110 108 133 113 118 113 120 133 95 107 109 120 133 124 149 143 138 119 126 130 130 151 153 162 129 145 139 137 142 148 155 129 157 161 135 148 167 151 142 153 149 164 158 163 149 152 173 159 147 184 177 169 173 192 212 209 225 176 220 212 226 243 244 238 270 264 263 285 274 320 309 321 347 372 347 408 429 447 475 473 534 612 559 633 648 720 761 827 779 864 929 909 1001 967 1011 1009 1039 1122 1155 1137 1104 1089 1151 1151 1205 1211 1138 1121 1125 1124 1158 1126 1064 1117 1075 1129 1051 1078 1068 1066 975 1034 1023 999 968 970 947 986 870 904 933 856 870 768 848 757 733 736 716 674 694 682 642 582 571 542 542 526 511 476 468 443 422 462 408 412 398 384 368 362 351 359 332 363 301 291 283 291 293 265 249 278 274 273 229 274 229 225 233 234 227 221 216 185 191 221 197 200 211 203 215 196 191 207 202 204 174 189 187 216 181 186 203 169 166 175 190 169 188 200 199 175 181 173 164 183 204 186 168 191 189 198 201 197 189 171 173 169 187 207 201 178 180 185 182 196 180 164 159 165 185 170 163 163 166 173 158 180 155 178 163 170 157 151 154 150 141 146 154 144 147 153 147 129 133 117 136 140 150 115 135 140 130 119 138 128 137 121 136 140 134 128 119 147 139 121 113 111 122 114 113 137 124 115 123 137 112 113 120 112 121 130 120 114 107 119 131 131 126 130 138 133 131 113 134 113 155 107 105 138 108 138 111 112 125 122 134 124 108 138 119 109 130 131 132 115 135 113 121 118 137 123 120 145 121 118 124 118 149 115 119 136 132 109 136 127 124 137 129 131 100 135 132 119 145 124 125 131 131 118 101 108 127 106 136 111 113 122 113 124 129 135 130 130 129 133 127 119 125 122 136 125 123 119 116 124 136 121 149 119 124 125 114 117 124 111 128 128 132 117 107 118 130 114 117 122 146 121 118 123 139 146 144 132 121 144 143 126 160 130 125 151 139 149 149 162 160 155 153 141 150 139 143 140 149 133 143 141 129 133 175 124 139 171 168 123 142 147 150 147 132 131 126 166 122 123 153 129 166 144 140 123 151 144 148 138 148 128 132 143 145 144 121 120 148 145 132 135 109 103 135 140 127 146 126 143 137 123 131 143 132 134 154 135 118 146 120 130 132 116 134 113 125 141 136 143 131 136 140 168 143 148 138 154 126 156 150 169 159 130 170 180 167 166 158 179 185 211 175 194 178 209 168 207 228 195 187 218 232 256 224 244 267 293 256 273 286 310 328 348 279 328 329 355 347 410 390 399 420 374 422 430 450 483 489 498 464 524 521 540 563 539 552 533 594 637 551 594 624 615 560 572 638 642 564 628 594 564 609 562 568 537 546 547 581 553 542 499 544 507 508 499 477 467 514 470 456 431 443 460 456 410 409 385 386 371 383 355 342 335 339 351 298 289 349 297 298 310 261 288 245 267 258 262 239 300 248 282 257 232 260 275 242 231 241 245 219 219 217 231 228 204 236 243 207 251 241 245 245 231 243 224 195 237 234 206 228 236 201 234 226 231 247 221 219 201 222 195 208 194 214 189 190 186 202 208 195 188 196 186 202 183 182 179 183 163 166 180 194 178 139 165 157 192 182 158 183 158 150 144 147 163 173 135 148 154 148 154 126 126 147 154 141 146 137 139 129 120 145 149 134 144 146 118 116 142 133 122 109 116 143 134 145 146 97 140 140 130 118 116 118 108 122 100 119 144 119 129 129 112 95 125 116 139 121 126 109 103 116 108 104 114 107 131 131 130 92 98 113 113 114 103 112 116 109 97 136 129 119 100 125 125 108 129 108 113 112 99 122 108 117 106 125 117 111 117 122 105 122 96 112 122 102 119 110 106 101 115 119 118 117 115 106 128 107 103 101 104 112 124 124 122 97 112 123 110 120 134 110 133 99 125 122 126 101 114 121 119 111 114 112 136 117 113 110 121 125 113 105 116 100 105 112 123 136 119 120 103 98 123 121 103 123 122 115 112 108 98 105 115 107 119 105 116 112 116 95 137 109 96 120 114 117 121 109 111 133 122 126 99 119 109 122 111 146 120 108 100 113 114 116 122 97 112 100 136 105 133 109 122 123 116 138 107 124 111 124 118 130 126 129 137 130 126 137 134 157 142 127 124 128 163 139 142 148 146 146 148 137 148 148 134 120 134 162 140 151 138 168 168 134 170 164 150 180 174 173 178 165 153 154 153 168 161 170 155 201 194 186 176 172 155 183 170 184 159 192 178 172 175 197 195 190 192 184 172 229 214 216 203 188 205 227 222 205 215 262 214 212 208 207 227 199 240 195 217 210 194 176 227 218 197 219 193 206 194 201 189 198 218 192 189 203 186 214 189 184 211 178 201 199 181 179 186 152 191 158 148 158 173 160 169 156 168 160 153 170 156 162 138 142 166 146 160 143 165 147 137 145 145 131 145 170 147 141 154 163 148 156 137 145 137 134 118 133 128 137 146 129 139 137 132 129 147 130 116 137 144 130 158 133 124 157 136 127 159 138 138 139 135 138 159 153 131 151 148 160 150 159 157 152 159 167 145 172 147 178 186 171 186 176 206 203 162 205 214 202 206 222 213 192 249 234 219 247 242 261 298 285 293 270 268 308 314 300 303 317 298 329 340 347 352 356 365 335 355 365 362 345 321 364 333 328 332 372 368 363 338 341 315 327 327 292 319 310 330 310 283 340 335 315 303 284 305 301 282 271 279 230 268 260 245 263 199 233 223 220 248 198 205 202 205 205 193 174 175 182 189 186 167 151 166 175 170 189 167 164 166 146 164 134 158 153 151 128 140 149 119 131 149 145 152 129 125 141 149 149 129 154 141 116 118 136 112 121 113 132 140 127 118 131 124 103 127 124 119 126 113 139 124 125 132 146 119 115 122 107 109 113 122 111 108 135 135 128 113 117 117 124 130 123 138 101 128 123 153 128 125 138 128 127 144 148 160 130 156 134 133 143 135 137 142 151 120 125 143 141 138 155 145 134 136 128 144 147 133 156 137 139 140 160 163 158 141 155 175 123 152 179 153 158 150 148 183 159 136 164 157 164 152 146 149 177 139 170 153 162 143 157 131 142 164 148 153 141 126 146 143 127 151 156 157 152 149 136 162 163 141 154 138 137 144 156 155 143 156 144 146 157 167 153 152 154 170 156 183 162 167 142 180 171 161 149 185 159 184 167 171 180 166 172 167 174 166 180 188 206 206 201 220 193 202 190 208 245 219 235 207 214 239 263 249 257 269 264 269 294 277 280 306 274 308 337 323 387 360 376 373 379 417 445 455 451 462 491 468 501 490 519 513 495 510 565 515 525 527 492 492 517 486 497 471 460 481 439 486 422 418 449 420 434 407 449 383 413 376 427 395 396 370 390 378 379 357 338 341 354 315 351 302 299 280 302 238 249 259 274 220 247 203 196 178 183 219 191 212 214 193 178 158 175 168 173 153 178 168 155 157 185 136 184 152 176 147 156 163 161 164 163 162 181 167 165 132 152 145 143 165 144 153 141 146 116 158 147 163 134 161 149 146 149 179 154 144 155 157 147 155 179 146 161 149 169 140 136 140 130 147 144 145 147 150 130 148 126 135 153 120 123 132 137 159 152 118 149 120 151 142 131 126 144 143 104 123 137 119 142 124 127 142 116 109 125 151 123 126 127 141 157 151 133 136 121 132 130 147 104 124 110 137 137 127 132 129 123 121 123 127 132 128 123 133 114 149 125 136 129 135 135 132 136 150 147 124 126 126 131 140 139 144 147 139 119 139 136 126 133 136 127 132 129 156 151 162 170 154 154 157 169 217 154 176 211 184 196 205 194 215 225 247 227 248 249 259 302 288 305 326 332 391 402 422 433 430 425 444 489 535 565 582 563 625 629 663 642 671 705 679 636 653 685 669 678 627 659 640 615 605 561 632 570 571 496 528 560 534 567 524 521 525 527 507 512 453 477 490 467 471 492 449 502 470 405 409 401 378 362 344 336 342 347 360 299 301 280 275 256 256 246 216 202 219 209 196 183 196 183 176 162 176 167 179 166 179 151 159 155 155 153 134 160 149 151 135 124 138 137 142 134 163 126 141 156 135 144 146 120 126 127 137 141 139 123 134 142 122 134 121 117 110 128 114 130 125 128 104 117 112 130 109 123 116 116 122 109 100 122 131 113 108 117 110 115 123 105 112 120 105 117 118 102 133 111 108 120 116 99 98 121 101 104 112 106 114 109 98 125 105 121 108 119 111 138 115 125 131 136 123 120 127 118 99 116 123 109 132 131 108 129 101 107 109 131 136 115 138 116 119 120 124 122 113 129 129 120 131 125 147 134 150 125 133 134 132 138 115 144 130 153 135 146 168 152 120 149 150 113 141 148 159 144 157 161 150 150 170 131 159 178 159 166 196 155 176 159 195 168 160 155 188 199 163 143 160 147 176 162 155 169 170 161 175 159 182 172 171 190 156 172 177 175 160 137 152 179 155 183 163 176 141 163 160 159 132 151 158 139 145 153 133 159 139 132 151 132 134 122 142 148 126 151 126 143 142 135 120 126 138 122 117 147 111 116 137 139 139 135 123 141 145 122 142 126 122 119 136 144 127 125 138 138 132 137 144 146 147 138 157 128 151 130 139 145 170 172 150 164 143 172 166 128 174 148 144 173 184 191 182 198 168 168 178 202 196 210 212 189 222 218 211 258 221 242 232 230 250 242 234 218 243 260 270 232 261 261 296 267 267 264 256 256 306 279 264 299 278 250 305 256 281 297 306 293 269 294 292 288 273 286 291 281 283 249 244 276 242 270 271 294 277 247 298 292 311 275 261 288 267 274 265 301 250 250 248 239 219 259 260 236 195 214 223 258 244 224 237 258 222 239 221 221 199 204 201 222 209 208 232 214 207 192 205 179 209 176 213 200 190 174 194 183 179 193 164 192 174 165 182 183 157 162 156 169 168 172 161 153 162 153 157 166 144 152 150 171 139 131 161 142 150 139 146 133 134 149 137 140 155 156 128 144 153 144 141 126 163 146 120 124 119 112 139 141 151 129 163 120 121 149 144 132 142 108 139 147 133 117 128 149 124 119 119 134 145 114 134 118 136 143 121 134 131 120 130 115 104 126 129 115 114 129 148 136 124 116 111 132 113 114 112 125 119 138 109 123 103 132 122 121 139 120 127 140 134 145 131 117 134 118 125 124 138 132 123 109 117 124 138 120 146 122 109 130 127 116 127 149 128 124 130 125 118 127 118 133 131 105 118 108 144 130 137 124 108 123 109 141 113 129 127 114 135 115 114 129 133 119 111 143 117 126 136 133 112 104 115 115 140 133 127 104 99 118 108 132 135 118 111 98 133 108 120 99 129 112 123 116 117 125 120 90 118 119 130 116 121 95 110 107 128 132 123 119 124 122 113 100 93 116 119 102 118 113 106 113 120 124 124 115 125 114 113 114 103 106 104 117 117 112 122 113 95 101 95 123 104 102 123 100 131 106 115 100 88 102 110 96 107 113 105 92 105 110 104 129 95 97 107 113 127 104 115 95 108 104 99 120 86 110 79 106 91 106 106 107 94 101 117 107 117 116 108 132 115 102 107 103 107 115 125 110 115 94 120 109 102 109 112 108 125 95 103 109 106 121 93 114 103 108 100 88 113 113 106 102 116 101 93 136 112 94 107 125 92 90 103 133 107 97 124 116 94 93 101 102 113 90 88 107 115 100 102 91 106 110 116 113 118 116 101 102 112 121 106 105 106 126 95 103 101 109 106 106 116 133 101 114 109 107 103 109 102 132 115 103 113 112 120 107 114 102 117 120 104 105 115 117 132 100 139 107 143 106 111 109 106 105 116 113 115 104 136 118 135 119 121 132 130 114 135 122 121 133 146 132 124 142 142 141 137 125 144 118 135 133 131 117 148 155 154 170 146 157 179 166 181 145 167 202 171 165 186 171 185 180 164 186 194 181 221 199 212 228 204 214 236 207 206 201 203 222 226 223 271 229 230 274 289 257 279 264 267 246 233 270 277 259 267 246 262 295 314 275 265 278 271 276 286 283 277 287 281 286 278 283 284 297 281 281 260 260 266 299 290 269 291 274 270 291 272 235 261 280 275 275 268 263 238 257 231 261 269 226 242 225 234 293 263 233 229 258 264 246 244 224 229 214 224 246 251 230 223 227 218 241 241 222 248 225 228 240 245 224 237 245 248 221 256 240 244 215 248 236 271 237 224 278 250 219 239 235 237 260 216 221 224 222 238 213 242 240 214 207 220 238 266 230 265 242 237 208 229 221 217 185 214 234 217 223 232 209 200 224 196 206 217 231 199 191 205 198 201 210 211 201 222 211 213 193 227 206 184 155 177 184 168 185 180 192 175 216 182 164 158 181 191 178 168 173 162 166 141 168 158 174 158 172 151 143 171 173 156 151 135 149 139 144 137 113 178 131 150 160 142 134 156 138 148 149 140 139 119 130 157 133 118 129 125 137 135 134 111 125 124 119 143 114 141 142 118 114 130 124 138 127 111 95 133 115 119 112 129 113 125 126 138 113 118 120 105 111 106 133 115 128 117 118 139 108 130 120 122 113 108 124 127 116 124 119 126 115 117 103 111 130 88 112 104 99 101 110 127 125 122 118</intensities>
			</dataPoints>
		</scan>
	</xrdMeasurement>
</xrdMeasurements>
