<?xml version="1.0" encoding="UTF-8"?>
<xrdMeasurements xmlns="http://www.xrdml.com/XRDMeasurement/1.7" xmlns:xsi="http://www.w3.org/2001/XMLSchema-instance" xsi:schemaLocation="http://www.xrdml.com/XRDMeasurement/1.7 http://www.xrdml.com/XRDMeasurement/1.7/XRDMeasurement.xsd" status="Completed">
	<comment>
		<entry>Configuration=Conf. Reflection-transmission spinner, Owner=User-1, Creation date=2/28/2018 8:43:02 AM</entry>
		<entry>Goniometer=Theta/Theta; Minimum step size 2Theta:0.0001; Minimum step size Omega:0.0001</entry>
		<entry>Sample stage=Reflection-transmission spinner; Minimum step size Phi:0.1</entry>
		<entry>Diffractometer system=EMPYREAN</entry>
		<entry>Measurement program=C:\PANalytical\Data Collector\Programs\sample-1.xrdmp, Identifier={BB6687EE-8248-4E06-B0C7-67735DEB5D7E}</entry>
		<entry>Batch program=C:\PANalytical\Data Collector\Programs\P3.xrdmp, Identifier={110013A4-273B-4C82-A4D1-871885B7687B}</entry>
	</comment>
	<sample type="To be analyzed">
		<id></id>
		<name></name>
		<preparedBy></preparedBy>
	</sample>
	<xrdMeasurement measurementType="Scan" status="Completed" sampleMode="Reflection">
		<comment>
			<entry>PHD Lower Level = 4.02 (keV), PHD Upper Level = 11.27 (keV)</entry>
		</comment>
		<usedWavelength intended="K-Alpha 1">
			<kAlpha1 unit="Angstrom">1.5405980</kAlpha1>
			<kAlpha2 unit="Angstrom">1.5444260</kAlpha2>
			<kBeta unit="Angstrom">1.3922500</kBeta>
			<ratioKAlpha2KAlpha1>0.5000</ratioKAlpha2KAlpha1>
		</usedWavelength>
		<incidentBeamPath>
			<radius unit="mm">240.00</radius>
			<xRayTube id="1010048" name="Empyrean Cu LFF HR (9430 033 7310x) DK427586">
				<tension unit="kV">40.0</tension>
				<current unit="mA">40.0</current>
				<anodeMaterial>Cu</anodeMaterial>
				<focus type="Line">
					<length unit="mm">12.0</length>
					<width unit="mm">0.4</width>
					<takeOffAngle unit="deg">4.4</takeOffAngle>
				</focus>
			</xRayTube>
			<xRayMirror id="27020009" name="Bragg-Brentano HD" hybrid="false">
				<crystal type="Graded" shape="Flat">BB/HD</crystal>
				<acceptanceAngle unit="deg">0.800</acceptanceAngle>
				<length unit="mm">55.3</length>
			</xRayMirror>
			<sollerSlit id="21010002" name="Soller slits 0.04 rad.">
				<opening unit="rad">0.0400</opening>
			</sollerSlit>
			<mask id="22030009" name="Fixed mask 10 mm">
				<width unit="mm">10.00</width>
			</mask>
			<antiScatterSlit id="22010003" name="Fixed slit 1°" xsi:type="fixedAntiScatterSlitType">
				<height unit="mm">1.52</height>
			</antiScatterSlit>
			<divergenceSlit id="22010005" name="Fixed slit 1/4°" xsi:type="fixedDivergenceSlitType">
				<distanceToSample unit="mm">140.00</distanceToSample>
				<height unit="mm">0.38</height>
			</divergenceSlit>
		</incidentBeamPath>
		<diffractedBeamPath>
			<radius unit="mm">240.00</radius>
			<antiScatterSlit id="22090010" name="AS slit 8.0 mm (PIXcel)" xsi:type="fixedAntiScatterSlitType">
				<height unit="mm">8.00</height>
			</antiScatterSlit>
			<sollerSlit id="21020003" name="Large Soller slits 0.04 rad.">
				<opening unit="rad">0.0400</opening>
			</sollerSlit>
			<detector id="7010019" name="PIXcel1D-Medipix3 detector" xsi:type="rtmsDetectorType">
				<phd unit="%">
					<lowerLevel>25.0</lowerLevel>
					<upperLevel>70.0</upperLevel>
				</phd>
				<mode>Scanning</mode>
				<activeLength unit="deg">3.3482</activeLength>
			</detector>
		</diffractedBeamPath>
		<scan appendNumber="0" mode="Continuous" scanAxis="Gonio" status="Completed">
			<header>
				<startTimeStamp>2025-12-28T16:08:27+08:00</startTimeStamp>
				<endTimeStamp>2025-12-28T16:19:58+08:00</endTimeStamp>
				<author>
					<name>User</name>
				</author>
				<source>
					<applicationSoftware version="5.5a">Data Collector</applicationSoftware>
					<instrumentControlSoftware version="7.9j 20171025">EMPYREAN</instrumentControlSoftware>
					<instrumentID>0000000011214615</instrumentID>
				</source>
			</header>
			<dataPoints>
				<positions axis="2Theta" unit="deg">
					<startPosition>6.00558257</startPosition>
					<endPosition>75.99655438</endPosition>
				</positions>
				<positions axis="Omega" unit="deg">
					<startPosition>3.00279129</startPosition>
					<endPosition>37.99827719</endPosition>
				</positions>
				<positions axis="Phi" unit="deg">
					<commonPosition>0.0</commonPosition>
				</positions>
				<commonCountingTime unit="seconds">13.770</commonCountingTime>
				<intensities unit="counts">549 502 531 528 553 538 529 511 534 483 506 474 553 540 540 508 507 545 462 479 495 552 478 509 540 567 539 511 460 469 496 518 548 562 541 517 507 455 489 497 502 508 531 511 470 550 533 508 502 493 532 504 515 518 519 497 505 517 475 479 475 467 544 496 458 489 502 509 501 498 490 470 480 486 500 499 453 483 498 480 513 467 471 454 501 493 478 487 458 497 483 472 518 466 499 472 478 517 479 514 493 468 497 506 473 450 472 457 473 451 465 471 450 508 461 475 507 468 449 467 477 493 478 456 448 500 421 488 476 470 469 482 484 461 477 476 492 458 478 482 492 463 466 449 465 420 430 433 448 450 459 419 490 487 464 461 456 474 424 420 495 477 444 456 480 407 453 401 403 459 474 415 452 463 494 427 416 441 432 485 480 425 450 404 507 493 430 447 461 474 455 430 444 453 420 443 449 445 451 515 481 452 432 459 449 412 445 423 475 491 449 431 413 481 452 458 444 445 462 467 430 410 429 453 436 443 441 425 472 417 394 416 431 439 410 440 495 412 446 427 442 432 432 449 434 396 419 448 427 396 430 448 422 435 405 442 426 424 410 440 440 408 443 434 399 426 414 455 414 442 437 451 436 395 425 404 421 452 431 411 427 444 422 408 413 431 407 447 406 437 403 384 419 444 393 427 419 442 444 417 406 430 441 457 400 406 403 396 396 395 427 411 444 421 400 409 459 423 410 399 428 447 392 396 462 409 468 415 474 443 426 428 411 375 425 389 378 427 425 428 425 427 407 442 407 417 411 405 411 383 422 400 393 411 408 403 398 372 417 401 435 420 389 397 408 383 446 438 418 422 429 350 438 410 414 398 365 413 440 433 402 405 447 442 415 404 420 409 419 406 372 414 401 466 399 424 411 377 415 414 408 428 340 380 395 396 384 392 393 412 414 414 434 432 390 455 389 412 371 413 375 396 413 427 391 365 450 396 397 401 392 438 401 393 439 348 376 423 416 383 380 355 413 417 396 377 385 387 370 410 389 398 411 398 413 396 403 417 373 403 379 385 371 374 379 381 378 406 378 372 392 409 413 415 381 407 388 384 335 384 407 395 400 393 383 394 372 384 384 395 344 379 400 395 394 396 414 395 359 329 367 371 349 392 368 382 396 380 374 355 391 377 349 404 404 393 373 387 382 383 378 361 392 375 373 390 379 350 356 396 413 394 391 356 344 413 359 379 372 412 404 376 355 385 383 347 393 410 361 360 369 387 379 365 376 399 405 349 379 391 399 393 352 435 357 383 396 419 338 377 349 416 364 363 391 377 393 394 416 358 398 355 361 386 349 352 363 330 361 373 347 370 387 373 378 364 372 343 358 362 404 395 407 343 427 391 341 323 364 318 354 367 353 372 340 320 345 362 386 386 339 355 320 395 372 370 354 366 358 340 376 343 371 370 371 348 350 382 337 365 326 360 350 365 375 371 398 388 349 373 375 373 352 339 353 357 361 380 309 361 377 359 356 390 355 364 374 335 376 355 325 363 396 336 376 326 389 383 359 384 389 355 360 354 307 353 322 365 358 357 332 338 385 383 381 356 381 359 330 316 336 347 351 356 345 348 332 351 399 342 364 326 341 383 346 370 362 365 372 355 318 373 353 354 384 321 336 326 343 332 329 362 343 364 344 338 371 354 352 341 374 361 334 338 330 346 324 331 331 356 311 320 329 318 358 348 337 361 350 360 322 332 342 358 330 332 335 344 345 326 325 372 342 377 362 326 344 346 348 357 311 341 308 299 325 333 309 366 326 329 341 327 338 358 329 347 338 330 320 318 320 346 316 356 309 353 342 343 376 339 346 332 315 326 326 341 308 310 319 341 324 313 351 304 336 329 353 330 345 331 323 325 343 320 343 348 316 377 284 349 325 324 352 328 332 340 335 347 341 321 337 360 339 330 315 372 332 345 330 309 315 298 323 305 333 317 306 343 347 312 308 321 322 318 329 314 348 321 320 301 326 307 297 317 354 302 322 324 294 336 356 345 322 318 335 332 340 293 317 318 337 321 312 318 348 326 311 317 330 313 318 314 295 331 301 302 328 329 351 290 337 297 304 290 280 315 291 303 318 300 342 319 316 316 311 302 301 298 322 307 299 306 311 276 310 331 304 313 298 311 276 308 331 317 308 318 314 311 322 280 302 280 314 275 335 298 289 328 315 315 312 298 299 312 310 331 287 297 308 325 324 295 288 297 317 309 315 313 297 315 279 320 285 309 314 317 343 310 325 292 304 318 307 307 295 281 326 300 310 305 308 303 301 329 274 316 325 268 281 312 318 282 298 292 292 266 296 316 300 301 287 309 297 283 309 313 291 327 294 294 324 287 306 303 314 270 307 302 286 329 265 321 285 281 310 310 317 273 292 258 296 250 352 314 287 274 286 289 277 276 327 277 325 316 272 322 276 308 278 296 234 291 282 311 282 277 275 289 287 269 282 284 294 302 256 305 292 301 304 298 289 314 282 257 263 280 251 290 303 263 306 292 269 276 273 284 292 319 292 284 278 280 292 285 295 299 273 281 310 297 288 300 279 295 262 288 283 239 288 320 277 288 266 294 269 273 273 296 268 291 278 326 246 298 279 282 293 246 279 284 284 280 287 280 296 290 272 286 312 296 272 281 276 285 293 309 284 324 290 248 268 258 282 329 293 277 279 280 288 274 303 294 281 270 276 261 328 290 273 266 236 248 303 274 238 306 281 294 281 249 309 248 286 266 262 261 277 306 278 274 278 259 300 265 299 247 273 290 311 247 293 280 304 272 264 296 259 258 264 263 274 241 300 310 289 281 303 267 327 282 275 272 283 233 290 265 266 282 261 248 250 284 285 291 291 279 289 288 309 275 279 280 308 232 284 231 249 231 257 275 260 269 276 245 256 268 287 261 249 289 263 235 270 272 262 259 261 261 284 241 274 277 232 274 225 277 243 293 245 257 245 272 265 292 269 267 297 288 257 239 247 266 274 237 238 240 276 281 268 247 260 278 266 264 264 287 279 280 269 262 248 279 268 270 224 241 272 244 277 273 235 272 288 262 233 284 248 232 256 284 279 248 260 267 249 242 247 257 272 261 258 233 301 236 267 300 278 264 277 251 291 267 273 271 282 289 257 219 244 244 289 246 235 272 282 234 278 279 213 279 279 296 233 269 249 228 248 272 276 248 283 234 231 278 239 268 250 245 230 256 263 226 249 291 256 246 271 239 276 267 240 278 267 244 256 250 263 233 281 230 258 257 236 246 256 244 242 208 232 247 262 234 244 249 267 214 262 233 212 270 217 265 257 267 232 242 292 265 266 240 247 231 233 272 271 270 238 261 224 224 265 257 274 267 242 237 238 239 274 242 229 222 270 265 237 264 248 270 275 229 280 244 240 235 257 244 241 265 228 265 240 246 218 236 277 269 231 265 212 260 267 234 258 256 232 263 273 263 270 232 248 231 213 218 272 236 267 262 233 248 217 245 250 218 242 272 243 239 258 267 267 263 266 234 238 248 256 233 269 246 246 264 266 271 222 228 234 238 234 271 239 265 241 232 240 260 235 234 258 265 216 227 245 208 241 232 238 273 280 237 264 231 213 269 238 200 234 258 232 272 238 233 242 275 234 226 244 215 239 242 225 243 221 232 243 234 248 228 249 227 240 244 243 262 239 232 241 243 234 259 230 259 225 216 257 250 244 212 271 208 226 212 241 229 220 239 232 235 241 264 247 242 220 236 234 213 211 212 272 237 256 243 243 242 245 228 220 227 245 270 245 242 245 199 216 268 269 221 212 248 244 225 231 245 248 244 232 263 222 246 259 231 266 230 227 263 241 243 243 251 256 229 218 246 245 240 220 259 235 232 236 247 235 230 249 237 241 240 236 244 210 217 218 231 223 239 222 219 272 235 261 221 218 242 223 246 192 225 224 230 258 226 219 243 262 234 230 244 210 234 208 227 238 223 258 239 227 276 223 249 211 224 249 228 226 216 227 244 212 199 242 264 223 232 242 237 224 217 242 224 212 237 198 234 231 233 202 215 222 257 236 235 246 237 229 246 240 230 241 215 226 257 234 258 227 257 242 247 244 264 224 223 239 218 237 239 213 205 238 257 248 223 213 226 222 238 223 237 232 245 226 243 209 230 249 228 239 264 220 238 227 229 245 259 242 218 228 246 221 237 211 273 219 225 213 224 212 244 243 230 296 241 212 249 218 237 232 237 223 212 280 213 233 216 228 241 250 248 271 260 216 230 216 206 271 271 238 233 210 216 216 232 244 227 229 230 235 297 262 230 256 244 247 234 201 226 231 229 229 227 235 227 239 221 209 233 243 251 232 216 233 271 220 240 225 248 220 227 234 222 226 242 270 204 238 200 238 217 238 243 225 260 237 234 236 250 249 246 260 245 260 247 232 227 231 235 244 249 250 247 219 207 240 256 226 224 248 250 192 230 216 241 233 221 260 218 245 229 238 238 225 246 237 243 237 242 231 245 235 245 224 256 266 216 217 247 246 227 232 243 225 230 239 258 240 291 225 230 228 221 242 236 294 188 242 247 227 262 232 265 268 228 219 241 240 212 256 217 271 222 245 247 220 216 230 237 264 239 233 258 263 286 233 267 256 267 225 281 248 220 238 274 239 233 227 241 240 245 227 256 237 228 243 243 265 275 225 217 256 223 233 270 267 238 228 235 271 233 245 242 229 238 248 269 262 272 241 248 226 219 248 244 225 231 242 242 256 194 272 260 256 216 275 250 259 228 220 235 247 231 225 226 230 239 215 232 210 234 271 224 204 231 248 239 242 238 243 220 260 260 257 237 263 222 229 235 244 213 217 239 227 223 237 237 228 239 220 185 231 242 213 250 207 229 249 229 228 207 209 219 199 224 211 226 232 213 212 236 235 220 223 222 201 237 246 234 224 235 228 215 218 257 203 218 229 196 233 197 212 219 216 222 251 233 236 222 224 193 217 260 200 230 211 215 206 232 200 230 218 231 209 218 198 241 220 222 241 209 245 221 237 234 214 233 207 218 187 246 215 235 216 198 211 218 226 223 218 219 212 217 220 225 209 191 209 231 225 227 238 219 216 210 249 176 217 231 196 218 218 229 216 230 216 223 231 230 209 241 210 215 236 210 190 197 193 211 239 209 221 216 222 206 174 197 211 214 217 209 228 227 233 188 223 205 205 214 223 175 208 192 227 215 223 186 195 244 214 224 197 186 214 224 269 194 216 180 215 217 214 218 257 217 226 228 214 202 184 203 240 195 223 204 216 195 213 229 221 223 204 204 191 210 206 194 227 225 198 199 225 230 210 216 206 207 223 209 210 207 206 179 224 214 247 218 193 211 208 222 199 177 195 202 202 212 222 212 222 203 196 195 218 202 216 199 197 222 208 197 189 193 211 236 224 216 229 202 204 197 189 209 209 229 209 200 200 199 207 208 200 209 205 222 220 218 218 193 179 223 216 209 196 215 204 225 201 219 201 194 207 200 214 207 212 219 207 221 211 220 219 181 232 215 230 202 208 190 192 197 220 203 198 200 199 206 197 191 195 217 191 201 230 226 182 209 230 186 198 188 207 188 187 221 176 223 201 231 232 204 203 217 220 206 225 213 192 192 214 211 236 174 194 208 190 215 183 208 224 247 197 199 206 178 237 186 221 190 213 201 216 226 198 207 197 213 257 215 207 203 230 216 218 218 198 214 183 208 199 210 235 186 239 222 188 204 199 247 187 221 216 206 199 212 208 196 219 191 205 197 203 204 223 220 208 217 233 224 185 213 228 203 220 208 199 190 205 219 216 213 205 191 222 207 226 227 202 182 208 193 174 211 210 224 207 202 205 176 213 188 200 219 188 220 207 200 209 225 231 198 186 208 208 149 212 161 211 204 191 182 200 201 201 206 188 208 189 214 199 209 234 223 204 197 220 191 212 202 186 220 212 192 207 185 213 208 211 181 210 208 217 225 199 238 203 195 191 194 183 187 205 216 191 191 197 174 180 196 186 197 199 198 189 185 197 209 201 218 226 194 171 202 191 197 192 201 210 200 198 203 202 193 187 173 181 212 183 195 211 188 202 200 216 227 200 199 199 199 198 219 186 210 201 221 197 199 199 196 199 201 223 197 189 213 217 197 204 196 210 201 194 210 215 187 177 199 236 219 172 186 209 206 214 184 200 190 211 200 222 218 199 208 230 188 195 186 206 247 203 198 174 186 206 188 194 213 177 196 198 220 196 190 187 189 220 216 216 223 182 176 177 202 225 184 207 204 201 200 203 197 188 180 176 213 190 198 201 209 198 197 206 226 197 198 195 204 225 212 207 225 212 194 206 230 171 227 200 190 211 190 190 197 199 215 220 208 195 183 207 181 211 201 213 184 230 200 203 201 239 187 191 218 202 194 224 206 208 186 203 205 197 211 202 200 208 185 191 179 180 207 188 212 213 177 196 206 204 214 199 210 190 187 199 200 193 216 204 182 211 200 202 216 198 208 222 199 200 200 219 214 204 205 205 214 183 230 221 203 226 220 230 210 206 188 214 193 206 210 235 208 206 203 228 202 212 211 209 184 234 217 239 212 192 222 247 195 202 219 224 214 207 222 214 235 256 211 225 220 249 205 236 247 218 227 271 237 248 268 279 277 250 269 273 307 295 303 278 317 323 345 362 356 326 365 386 357 391 381 386 385 432 376 473 415 432 409 467 460 425 483 437 480 496 494 473 497 493 489 487 458 523 509 502 497 489 493 513 488 489 465 447 448 452 411 430 423 381 406 388 381 365 376 397 363 360 342 363 328 315 323 297 301 323 302 291 295 300 290 281 263 260 261 257 229 233 250 244 209 223 234 223 244 241 229 240 220 233 231 229 203 243 214 238 266 209 230 228 207 197 247 210 188 223 227 206 191 201 231 195 220 218 189 211 226 237 223 186 197 202 195 225 210 205 192 203 198 225 205 212 182 225 224 204 218 200 196 208 207 220 210 228 208 214 207 193 201 212 209 221 214 204 208 187 197 201 190 200 223 209 227 238 210 214 218 216 224 197 189 218 212 215 201 213 239 192 207 220 210 220 204 201 202 198 204 227 196 216 216 206 212 195 198 215 189 215 206 207 213 233 185 193 187 197 201 222 232 212 199 193 191 193 190 198 194 207 181 195 190 184 203 217 195 188 201 207 187 205 205 185 203 183 219 183 196 204 232 186 178 194 198 224 218 199 194 210 208 210 178 185 194 207 221 191 183 215 208 195 218 226 212 208 221 197 203 222 182 199 195 223 223 225 213 213 205 212 200 197 219 229 206 193 209 198 232 226 221 181 203 220 217 217 203 219 190 203 186 224 200 192 192 223 207 198 207 194 202 184 205 196 185 198 206 176 200 220 191 198 214 218 192 210 193 163 209 185 228 190 213 215 217 195 235 212 208 226 185 196 213 212 204 203 214 205 235 214 210 213 196 237 229 207 180 200 207 203 207 209 195 195 209 210 207 205 205 183 203 223 213 216 201 213 212 188 224 206 192 202 209 199 217 221 232 202 201 210 223 226 240 197 213 203 213 223 184 198 202 220 207 203 202 193 202 211 213 214 211 207 236 203 206 203 210 221 204 220 204 229 228 238 222 206 207 197 193 233 204 213 219 215 244 225 229 231 201 203 216 225 200 203 205 195 186 216 218 223 209 216 218 212 200 201 211 214 216 231 231 205 206 200 224 228 232 240 210 214 199 217 199 214 215 228 232 218 215 223 212 200 223 226 221 228 209 206 230 231 209 202 236 217 202 259 198 212 232 229 205 220 264 221 227 217 216 220 228 228 201 224 215 188 237 265 214 209 216 222 202 216 215 200 228 225 195 219 237 209 240 214 191 201 229 224 213 227 230 233 232 228 234 224 229 270 210 232 223 191 217 240 224 231 245 201 201 204 192 210 215 220 213 194 195 210 225 235 204 221 206 218 237 226 227 233 224 237 226 201 195 210 214 224 207 230 242 222 224 256 246 212 216 228 220 217 258 208 223 205 239 198 213 230 236 228 223 213 234 234 220 229 211 233 188 231 241 232 243 216 211 225 200 235 231 220 219 240 234 240 231 219 262 217 222 232 233 207 216 238 234 220 206 241 211 212 203 260 219 234 218 226 218 241 219 233 227 230 247 230 231 228 224 246 227 216 226 216 274 230 244 232 200 231 240 227 224 249 208 231 233 218 232 230 237 245 263 213 258 213 220 270 231 243 228 241 238 257 233 249 262 269 249 232 231 235 237 258 256 213 237 246 231 234 247 221 247 242 209 226 246 242 227 262 236 279 247 257 241 249 257 236 240 260 222 239 240 205 242 263 272 236 230 269 242 241 279 230 261 232 297 229 238 243 266 222 226 235 216 258 228 259 239 226 260 245 246 226 230 265 239 258 233 249 223 234 233 256 212 229 225 277 281 263 257 232 249 240 261 269 262 221 278 265 235 292 237 235 239 256 260 244 245 266 237 238 232 236 264 269 212 277 240 275 244 228 236 211 226 246 276 217 243 225 227 276 229 243 251 256 260 244 261 263 251 275 249 249 256 221 211 236 227 228 243 262 242 233 263 268 270 268 261 237 230 240 236 243 225 241 232 243 236 275 241 267 240 270 231 249 228 262 264 235 282 215 267 247 248 239 282 237 265 230 239 226 239 236 246 274 228 236 264 236 271 245 249 265 244 246 297 272 265 247 238 245 283 229 245 282 264 226 259 224 262 236 275 259 263 285 289 298 267 257 249 247 272 248 273 232 244 246 271 277 236 274 270 259 276 292 282 262 278 236 302 275 236 299 259 240 260 304 267 239 275 245 268 250 269 273 277 282 278 250 277 243 259 250 257 246 284 269 270 260 270 248 275 256 260 226 266 228 272 233 275 276 271 271 228 274 272 266 257 243 260 287 274 250 268 282 275 226 266 242 246 288 279 239 276 243 264 263 260 262 263 269 235 269 256 257 265 260 284 293 286 264 271 266 270 278 257 276 274 259 289 249 278 269 243 268 290 262 231 259 279 266 279 240 258 292 287 260 287 261 263 272 263 265 280 266 274 246 290 263 277 262 294 279 285 272 259 268 298 282 267 267 273 261 250 268 269 259 289 242 247 267 291 276 283 244 260 277 249 285 243 263 279 270 275 248 302 275 279 278 265 292 273 290 288 286 245 274 257 243 276 280 272 277 261 244 258 269 260 281 260 267 262 279 261 277 277 275 233 245 305 267 280 283 286 268 288 259 266 283 258 262 275 300 310 294 292 270 301 272 263 231 274 245 285 261 271 286 260 294 261 242 295 270 276 276 246 264 280 277 279 301 267 260 217 270 266 256 250 293 269 322 300 286 264 280 234 263 243 283 290 269 272 279 239 272 247 244 262 293 290 256 271 236 245 285 293 244 261 288 296 276 246 280 234 289 246 278 274 280 261 266 244 263 269 257 247 279 249 268 281 266 286 268 232 260 261 293 265 276 272 256 267 273 288 222 249 249 250 266 274 299 238 258 256 286 278 299 283 280 238 279 246 279 229 296 265 295 279 273 264 267 256 265 259 241 233 237 265 289 250 274 258 265 289 257 271 238 239 248 264 273 286 271 238 269 269 276 247 267 260 259 273 268 257 279 267 279 246 256 272 246 258 247 243 284 260 288 323 256 302 262 239 295 257 277 261 269 265 291 236 282 283 271 271 231 281 246 282 283 271 232 278 246 267 284 277 246 298 273 290 281 258 280 274 272 279 284 272 267 266 291 267 265 287 299 261 264 258 267 271 281 268 283 265 272 248 269 286 290 299 264 309 275 257 290 277 276 282 271 307 280 269 286 271 296 293 299 291 284 300 301 310 272 282 269 260 303 321 314 308 279 281 276 282 287 301 280 286 313 294 277 310 281 306 301 288 302 323 317 298 306 311 339 322 337 328 349 345 299 326 354 359 376 361 351 391 385 378 394 434 413 377 431 433 449 443 449 460 515 483 494 490 505 491 510 535 562 492 562 549 581 593 598 593 629 660 578 578 662 640 657 639 607 694 608 696 685 603 643 635 652 633 593 601 620 615 637 639 596 607 639 620 554 582 570 573 577 603 595 532 546 496 546 535 510 550 488 439 467 418 452 459 486 436 437 396 457 379 382 388 390 378 352 346 365 343 352 360 349 319 333 344 327 345 356 345 321 352 345 342 345 316 320 324 321 303 371 334 318 320 323 305 340 307 318 303 281 303 312 320 315 314 290 320 279 308 320 312 312 295 338 281 312 317 326 302 296 313 325 318 341 324 316 309 291 330 299 287 290 325 307 307 295 293 298 315 303 300 350 295 316 337 301 336 317 300 287 311 288 311 323 296 322 283 330 304 330 300 314 324 336 317 325 284 307 309 296 296 284 300 309 287 296 299 326 300 308 292 316 308 272 305 318 314 314 317 341 320 295 318 284 324 285 292 299 315 305 318 301 304 317 349 308 328 300 330 300 343 325 304 305 305 341 310 361 340 344 300 330 337 318 289 323 336 329 354 314 317 349 305 332 318 317 335 325 309 309 314 309 302 307 297 305 313 336 315 342 305 344 334 306 334 332 322 385 354 346 328 351 350 355 307 311 323 354 327 302 320 326 366 346 337 352 359 337 320 330 346 326 349 355 308 348 361 350 331 316 330 373 352 355 336 360 362 376 372 358 366 361 373 340 333 329 341 359 371 356 356 357 348 353 384 370 315 324 358 353 337 323 369 395 335 358 364 362 350 357 381 337 362 387 356 330 324 354 353 362 354 349 391 365 346 366 383 359 349 352 347 367 356 333 389 359 331 357 347 371 353 374 369 365 358 367 341 366 376 393 359 373 377 397 409 379 413 355 397 371 365 374 387 372 364 415 390 406 379 398 405 419 406 435 410 419 436 493 438 478 458 510 504 487 540 556 515 523 513 531 559 568 582 554 537 606 583 594 562 576 587 599 572 572 548 547 561 560 556 538 547 540 535 523 512 512 430 491 462 468 473 436 420 425 437 412 418 412 389 394 408 375 371 391 348 396 321 338 345 355 332 373 358 366 374 369 336 364 329 326 355 331 333 324 363 339 349 369 330 334 305 314 288 350 334 303 301 333 313 317 285 290 324 309 259 289 282 281 290 304 263 323 316 316 290 301 296 301 306 312 324 301 302 274 281 246 269 291 301 314 301 301 286 306 288 308 256 282 298 291 304 287 306 295 266 291 282 285 264 303 302 257 282 258 248 266 261 288 248 276 315 221 282 296 282 299 283 278 282 259 272 267 299 238 270 258 262 270 284 258 264 256 273 247 264 299 287 258 296 290 271 283 273 290 257 289 241 281 264 262 241 260 288 295 243 280 261 250 269 296 258 280 282 289 249 237 278 270 266 293 260 283 250 231 288 278 258 244 258 266 272 263 278 299 280 243 278 243 248 273 262 256 276 281 239 249 271 244 303 261 274 266 288 269 262 272 260 285 290 259 309 272 270 241 276 281 270 257 261 276 238 234 266 286 270 256 315 297 277 278 282 284 266 250 309 266 259 262 281 273 266 244 292 272 278 293 277 286 284 279 234 298 296 268 294 316 259 283 271 289 282 263 277 277 246 282 269 284 294 288 292 242 299 277 231 292 249 279 274 258 263 288 274 278 269 247 275 249 260 250 279 241 277 278 241 239 250 263 279 272 268 275 266 312 273 261 256 238 248 278 240 272 240 277 261 247 229 228 262 233 258 238 283 245 259 256 248 273 216 283 264 262 195 232 240 259 220 246 226 234 276 241 241 240 226 222 212 242 216 267 238 221 220 217 247 217 215 259 213 230 227 241 222 244 261 234 241 226 220 234 225 242 227 230 217 222 238 221 236 227 238 211 245 212 213 190 228 206 231 203 195 215 229 240 271 192 211 230 225 192 208 247 245 218 212 243 195 243 233 209 198 207 219 238 206 236 204 213 221 211 215 204 218 209 197 221 226 192 214 209 186 202 198 205 217 244 206 206 232 212 207 205 216 189 213 228 225 231 187 185 203 207 174 228 210 208 224 200 232 189 198 203 183 204 196 185 194 205 215 210 203 221 196 222 199 176 228 220 204 192 197 201 213 234 217 200 191 226 210 205 185 208 205 208 206 174 214 204 201 200 182 216 182 174 175 185 190 167 200 214 215 181 186 218 184 199 183 191 189 202 191 204 229 183 211 197 191 208 206 234 219 203 225 196 190 228 195 193 165 203 182 213 196 202 177 190 210 208 210 201 195 196 175 178 175 206 226 182 176 188 211 183 206 163 159 215 201 196 199 189 215 211 201 185 190 197 225 195 197 202 211 204 199 190 176 186 221 215 200 190 180 192 175 185 200 189 164 191 205 209 208 178 178 190 186 187 202 194 191 199 196 187 209 173 188 181 213 218 207 199 188 194 186 217 177 178 182 206 203 184 186 199 214 203 196 196 205 176 196 192 188 191 205 199 180 180 187 219 214 210 177 166 212 201 189 194 196 189 173 181 200 215 200 183 196 157 174 175 193 165 168 189 230 190 188 195 225 199 186 196 167 178 203 190 180 194 214 190 191 226 215 197 191 183 185 155 174 171 190 208 189 191 229 185 214 187 210 215 183 183 199 175 188 198 198 199 208 202 199 219 214 210 208 185 193 189 204 174 206 213 221 204 200 216 173 202 198 232 189 189 200 179 198 211 200 191 211 206 202 202 219 216 232 221 195 208 219 221 204 229 184 200 228 205 230 225 227 232 215 223 258 249 261 219 238 222 240 237 272 231 266 264 296 297 267 265 271 276 308 290 301 291 307 350 295 334 358 344 360 391 397 400 404 473 433 456 439 469 519 470 506 511 567 568 558 595 575 617 630 646 645 635 653 685 649 695 686 713 663 660 650 693 713 678 716 698 661 651 581 650 641 652 599 551 620 554 583 553 531 555 545 504 513 482 462 474 440 425 416 416 393 374 368 384 365 389 367 369 359 314 299 305 294 353 292 266 292 284 270 282 274 263 228 247 284 251 239 234 245 256 219 261 259 211 261 210 222 215 218 234 259 242 243 211 244 213 208 218 228 217 228 272 238 206 256 238 245 234 218 223 247 241 213 255 215 206 216 230 228 236 216 203 207 247 221 242 187 225 244 221 230 236 238 204 240 227 215 209 185 234 220 228 239 244 230 259 240 227 207 222 262 234 231 223 221 226 238 247 241 218 236 217 212 226 247 258 236 232 263 202 250 229 248 273 245 260 261 236 238 257 277 250 264 277 248 265 248 250 265 292 266 250 276 302 278 260 292 260 282 274 303 309 262 293 338 311 305 304 322 290 306 291 267 284 278 281 262 278 282 240 297 264 267 277 294 291 292 299 273 287 294 302 299 277 298 265 298 297 285 273 250 271 272 250 283 269 249 283 275 274 333 292 304 269 291 305 274 301 279 289 295 265 265 265 296 272 284 287 264 312 313 294 323 299 309 322 303 326 287 341 318 308 293 276 303 310 282 340 313 294 311 321 305 308 329 287 311 303 312 327 302 320 302 341 260 284 317 315 325 304 306 344 329 318 357 351 337 333 333 357 352 332 327 312 350 335 350 328 347 358 348 338 355 346 331 386 323 330 332 345 308 341 317 352 373 350 332 371 319 319 324 358 355 361 396 356 339 361 366 375 359 370 370 362 413 350 396 381 368 403 344 343 382 372 382 367 344 403 382 338 384 363 361 371 366 367 335 383 397 418 387 395 400 367 398 365 386 371 377 391 355 358 376 391 365 361 391 379 343 388 340 403 370 364 385 375 382 416 376 374 372 376 405 378 364 398 374 385 362 374 357 343 380 369 366 357 388 362 375 402 386 374 320 395 385 357 371 330 367 346 364 395 351 364 343 356 358 360 335 403 369 370 349 364 375 361 335 401 325 376 338 326 309 328 351 339 335 346 277 342 342 332 323 307 332 337 334 344 328 342 305 348 284 304 344 326 311 325 321 323 287 327 324 346 292 329 323 309 309 315 304 313 316 342 294 326 283 322 284 340 285 290 274 308 293 310 331 305 274 276 283 282 302 267 281 291 301 262 248 315 302 282 299 277 261 277 267 290 258 290 269 289 238 266 266 276 268 261 267 247 285 249 271 277 236 264 260 270 250 239 242 294 230 248 230 244 228 225 247 236 263 226 256 227 232 230 245 267 239 230 217 257 218 235 221 232 213 245 233 211 220 265 234 227 226 225 218 184 232 232 207 222 234 198 229 224 265 208 203 232 213 206 213 211 207 199 218 203 218 231 228 227 205 213 196 216 195 200 208 200 197 206 207 220 212 202 204 215 195 213 189 185 200 197 199 215 198 201 178 173 214 203 215 210 210 182 188 210 202 166 193 196 179 195 202 184 190 213 220 214 184 201 204 196 205 194 178 184 190 180 181 160 184 184 208 153 209 177 159 198 210 187 165 190 162 157 166 171 161 198 194 176 181 190 199 174 163 169 186 179 164 161 177 171 174 172 175 182 178 178 184 166 200 174 196 183 179 173 172 159 181 172 181 171 175 167 182 150 161 176 166 168 160 164 150 171 153 161 175 186 186 205 156 171 181 184 172 180 173 169 184 181 194 194 169 182 191 183 176 168 153 168 186 174 187 151 159 170 145 155 177 167 170 158 158 178 149 177 154 172 192 160 170 162 147 179 174 166 177 170 162 172 164 164 155 151 139 156 160 155 135 174 156 154 146 162 159 165 169 158 148 171 177 155 157 143 162 157 151 161 136 174 158 174 146 174 143 161 155 159 164 139 137 141 150 153 146 154 143 145 150 148 143 143 160 153 141 147 149 155 179 147 133 134 132 151 160 150 161 142 123 181 161 139 161 162 144 133 153 148 151 158 168 171 124 135 138 139 125 152 146 145 161 157 143 146 143 133 176 139 140 159 121 140 149 143 144 141 126 149 136 146 141 155 132 147 177 145 137 142 133 145 143 158 134 151 145 144 122 146 144 131 139 143 159 142 142 157 147 139 132 143 164 132 144 145 144 146 155 146 149 131 145 145 153 143 142 157 155 152 113 144 136 151 167 141 144 134 149 146 132 136 134 132 140 170 139 142 140 130 157 127 153 125 146 160 160 145 145 138 118 138 140 130 168 147 162 134 138 142 147 153 124 140 148 160 115 147 133 145 137 153 161 136 149 136 132 157 158 154 151 153 145 149 157 150 160 140 149 138 140 154 132 131 134 118 150 138 136 155 143 126 149 148 149 142 129 139 129 158 146 138 139 120 144 136 145 136 138 147 134 158 131 159 164 141 155 119 134 143 133 146 163 176 153 180 163 151 138 147 161 135 132 155 134 120 145 148 135 148 127 135 154 133 149 159 120 140 157 137 146 157 138 125 151 155 159 129 151 158 148 167 124 118 128 138 142 137 140 135 154 147 132 153 144 131 130 155 144 146 138 144 157 149 159 138 138 160 144 150 162 133 144 150 139 154 168 156 155 160 146 145 130 145 140 136 146 138 138 146 148 163 132 153 141 138 134 149 149 131 168 133 113 129 126 148 136 140 161 131 139 163 169 132 128 131 160 147 147 147 150 157 159 142 155 114 137 149 142 121 134 141 146 141 140 121 138 145 136 164 147 157 142 157 143 139 155 143 150 159 150 128 131 144 139 121 134 125 153 157 145 138 137 142 137 150 142 129 140 126 138 146 162 132 128 122 138 138 152 131 156 130 143 131 155 152 144 131 142 137 160 140 124 133 121 130 148 130 131 137 134 160 129 138 145 118 139 157 152 135 141 162 140 135 142 145 148 135 160 141 133 133 141 156 153 137 167 143 146 135 145 129 136 137 162 124 135 137 138 139 142 140 150 127 148 143 158 129 157 124 152 147 142 149 150 133 151 135 162 161 135 158 147 163 163 149 155 149 142 170 167 159 160 164 160 159 158 156 157 152 158 162 152 143 158 162 167 193 159 175 159 178 163 157 168 175 190 180 197 203 168 200 190 201 179 208 204 230 214 212 236 224 256 237 274 269 242 303 275 292 295 268 295 289 321 279 299 310 319 299 301 315 382 328 330 345 316 335 326 331 329 309 341 371 371 317 343 315 344 324 323 303 334 308 309 321 310 301 272 244 306 273 264 278 273 269 269 257 247 227 240 244 223 222 237 221 234 210 195 194 208 197 187 211 208 215 178 185 193 187 170 174 153 158 182 181 175 176 146 159 160 151 154 164 181 147 146 128 160 176 158 139 153 123 154 156 150 160 156 146 159 157 140 167 142 172 145 148 136 161 149 151 151 157 139 166 136 156 145 141 143 163 129 155 114 140 120 143 130 134 133 147 129 148 144 161 139 135 146 143 103 153 160 140 135 142 142 156 125 148 131 138 158 144 147 156 138 155 135 160 140 146 131 160 143 149 136 116 148 159 158 135 134 159 147 147 140 145 137 138 130 124 153 133 128 127 152 141 141 161 128 115 159 124 143 151 114 147 149 132 123 137 133 162 133 145 134 156 137 130 126 120 131 130 124 146 129 136 125 143 136 117 134 139 123 131 155 141 122 135 153 136 138 138 136 136 157 128 135 135 130 140 147 159 128 134 154 128 131 136 142 158 133 131 137 150 140 120 147 139 158 124 137 145 134 119 132 127 143 137 136 128 144 133 155 142 144 126 120 131 136 147 140 138 130 144 149 149 139 123 136 141 153 144 137 150 152 156 139 122 154 120 139 141 127 136 131 136 134 154 157 137 146 139 132 114 144 144 156 121 123 157 130 124 141 140 141 130 143 131 131 140 148 131 131 128 152 145 126 134 148 150 141 138 153 129 151 158 151 159 154 141 142 130 146 140 130 157 134 131 155 137 148 138 134 150 129 143 125 120 108 151 118 141 139 154 139 141 131 144 131 140 139 148 140 152 144 123 135 161 155 117 155 161 137 146 120 149 144 158 133 121 129 165 160 152 132 145 139 162 138 134 145 137 145 156 133 143 140 115 129 140 144 136 127 145 136 132 149 147 110 128 153 152 148 153 138 101 170 130 154 138 155 131 145 144 124 146 138 118 123 154 141 149 154 154 126 148 145 134 145 145 147 115 157 144 153 138 120 143 142 155 132 145 160 143 170 160 143 136 148 129 131 145 135 159 139 147 138 133 137 123 155 143 124 157 169 146 131 126 143 161 149 132 166 140 158 169 140 141 144 137 152 137 143 130 159 175 159 165 149 144 141 156 150 146 155 135 155 154 123 138 160 149 162 174 144 155 148 150 141 158 141 135 149 150 140 154 156 152 165 160 134 126 167 157 146 147 164 143 150 148 144 144 145 133 121 142 161 153 145 134 137 141 140 159 146 151 130 144 152 138 138 155 137 136 159 150 133 142 142 159 126 147 134 169 146 163 148 145 158 140 148 157 175 167 164 138 157 160 180 148 170 131 170 154 135 143 128 153 154 150 156 136 148 154 153 181 128 156 155 161 154 172 152 158 140 169 145 146 142 141 151 145 137 149 172 161 141 153 172 173 158 162 170 168 166 156 141 163 200 171 145 148 162 157 172 194 157 175 167 170 156 208 135 165 175 163 169 179 174 183 151 186 180 171 175 175 186 193 154 171 161 167 154 188 150 164 181 191 172 181 186 188 195 186 160 182 193 209 194 208 197 181 206 200 184 200 192 203 220 213 245 212 242 229 235 250 258 269 265 236 247 270 275 300 301 306 292 295 306 295 303 363 358 340 394 354 366 367 392 433 404 398 455 417 451 431 478 459 446 453 483 469 506 453 489 503 508 443 477 497 480 506 483 468 509 467 478 450 485 495 456 502 505 514 466 490 441 453 439 488 445 472 431 431 435 401 382 405 405 380 358 387 389 353 371 333 339 343 311 304 324 326 305 300 320 267 317 292 286 227 260 272 248 265 216 277 234 232 239 262 238 213 225 175 216 218 206 201 191 205 206 186 181 221 186 195 192 185 192 197 199 185 193 185 181 179 161 191 168 177 202 206 195 179 199 161 170 168 172 173 169 151 188 208 179 175 159 187 186 194 188 161 171 183 165 174 174 138 167 167 177 167 172 168 167 174 190 169 183 182 178 194 168 158 158 189 183 159 169 195 212 176 180 165 167 178 160 189 168 178 160 160 161 170 164 168 186 140 162 188 161 175 176 164 164 194 187 172 167 157 161 182 180 168 151 163 175 155 151 185 161 160 169 190 176 185 158 178 139 163 148 181 142 174 166 147 189 179 177 174 187 165 151 186 161 182 153 191 165 154 177 175 156 159 175 157 174 161 158 171 167 154 142 157 152 191 160 163 168 165 178 173 166 162 148 171 181 150 167 155 181 168 192 169 183 177 181 173 157 176 161 162 175 141 173 160 173 172 177 187 190 160 179 167 167 172 165 180 163 181 176 198 203 152 186 151 168 158 170 175 182 177 175 185 193 183 150 158 196 182 195 207 174 162 173 178 180 171 185 160 205 183 178 183 179 179 183 167 186 150 187 191 217 162 186 188 208 169 161 168 161 167 182 188 186 188 168 167 158 177 170 225 164 186 195 194 168 178 183 205 207 191 195 185 181 202 185 182 226 196 197 181 209 180 188 193 208 195 233 209 207 217 188 210 229 181 217 163 182 182 207 202 162 190 181 196 196 162 188 194 217 184 209 195 179 181 174 177 179 203 186 198 202 203 190 179 188 195 203 208 185 173 194 198 156 191 183 177 180 218 188 202 203 197 191 183 178 179 193 188 216 171 186 207 178 213 190 187 199 202 201 195 214 172 199 171 179 166 196 183 178 182 209 189 180 194 204 185 196 207 171 175 190 192 207 184 191 186 185 196 186 186 190 189 197 189 166 202 222 211 174 178 205 209 184 189 197 179 191 182 191 212 208 194 178 177 186 198 214 176 208 199 223 205 184 184 185 172 202 192 198 198 227 200 194 215 207 175 185 211 208 206 205 198 189 227 227 199 205 190 227 200 185 219 218 189 182 228 229 183 211 197 208 205 216 190 233 221 223 220 228 203 209 218 225 232 227 209 199 221 236 209 219 198 238 210 213 219 238 228 212 239 223 230 231 226 199 228 229 236 225 222 227 227 241 260 229 240 211 223 203 239 215 221 220 209 202 215 192 186 208 210 203 242 242 214 233 235 168 221 199 223 215 205 214 216 210 217 214 227 208 197 199 210 245 216 209 196 211 202 199 192 205 195 202 213 182 217 199 219 204 178 182 220 181 186 196 231 200 198 199 185 201 197 191 195 162 198 178 180 204 181 195 187 187 211 199 194 182 185 200 204 211 194 186 196 188 204 188 196 209 170 166 185 188 177 184 162 195 184 175 203 177 201 188 189 204 228 155 193 202 213 194 184 196 190 163 180 181 195 173 179 170 187 167 190 195 188 191 188 190 183 187 175 188 182 202 181 193 176 159 169 168 186 183 173 170 169 198 195 180 183 165 182 193 189 167 174 176 194 177 184 177 171 178 152 181 193 169 177 173 190 153 179 176 186 193 198 195 152 190 217 183 170 198 187 184 168 158 188 180 195 180 180 180 189 161 150 190 175 181 187 187 180 168 164 192 167 167 209 156 189 190 179 202 194 161 168 169 187 189 187 174 167 191 174 153 177 170 159 200 190 188 185 146 170 192 178 188 160 177 165 196 182 189 199 178 182 163 149 181 161 173 174 172 153 174 193 197 148 178 152 187 184 155 172 193 169 171 192 163 152 171 201 178 179 192 174 186 160 175 193 173 174 151 178 189 157 172 176 177 192 177 167 159 190 177 182 175 156 198 189 162 179 184 187 179 161 156 188 164 183 183 179 187 192 179 172 186 159 155 156 145 177 176 175 187 186 194 165 176 190 183 195 186 186 198 189 190 160 183 167 153 176 142 207 166 187 172 198 207 180 193 151 182 172 185 156 170 181 175 207 184 193 202 204 160 164 164 180 189 179 191 177 168 175 180 174 173 184 173 163 187 207 173 183 173 172 177 191 182 193 189 199 179 164 162 187 199 193 176 177 179 157 182 178 168 182 186 194 176 154 198 161 170 150 165 171 192 171 191 175 167 177 178 178 190 171 166 185 184 187 210 188 202 179 184 179 201 203 209 167 195 173 198 202 197 184 172 170 172 185 189 193 201 195 185 197 186 168 170 192 153 193 206 166 206 177 170 171 178 185 171 211 209 167 170 224 210 209 190 179 185 195 183 196 192 182 166 204 190 218 199 218 200 186 188 210 209 205 191 179 202 201 206 182 191 202 213 191 162 197 180 207 193 194 212 203 214 220 190 199 186 200 189 193 224 187 191 196 202 196 202 213 184 193 159 205 213 199 219 242 218 208 201 171 202 180 200 227 224 207 214 211 209 191 199 211 219 224 223 210 204 210 207 210 208 210 211 215 201 204 219 244 195 245 214 205 226 257 207 221 212 208 213 209 210 203 225 194 218 231 218 212 196 259 223 225 222 205 230 223 234 277 219 218 240 242 211 217 229 235 222 260 229 229 214 230 216 217 235 260 244 264 240 221 243 233 217 260 247 230 224 219 221 227 220 223 267 243 228 267 229 220 264 230 237 242 234 258 231 242 238 256 248 224 234 257 271 262 261 248 264 226 286 245 214 279 274 274 271 263 286 244 226 270 273 290 248 311 243 264 261 275 258 275 265 284 283 278 288 306 249 278 289 257 269 273 269 285 289 258 315 291 265 267 315 311 299 318 263 280 327 300 294 299 298 301 292 299 286 311 299 314 305 316 268 316 315 332 297 309 352 334 330 317 317 323 300 348 343 313 382 354 340 372 377 356 381 373 364 377 395 422 381 367 400 373 335 376 385 385 397 394 368 410 416 419 445 421 423 420 399 457 450 463 455 449 460 498 446 518 491 483 473 504 477 487 517 541 494 555 551 528 519 500 488 537 538 503 614 544 518 542 539 513 523 505 526 493 523 513 519 532 504 531 477 506 505 491 478 490 507 519 494 532 508 448 484 523 468 475 508 482 510 457 497 491 494 464 437 478 485 466 450 477 436 465 454 468 460 471 463 452 485 457 456 464 486 491 464 464 429 466 413 434 471 483 463 476 451 461 439 474 503 454 482 471 471 473 496 454 487 474 460 476 464 480 500 463 470 467 473 444 464 416 460 471 453 437 425 474 455 434 441 416 431 436 490 429 416 503 446 428 415 416 434 507 402 427 472 396 413 435 430 439 435 395 437 356 441 439 455 391 424 416 423 406 422 407 402 438 371 412 428 401 397 447 370 381 397 375 389 346 396 384 380 373 391 372 364 384 376 353 388 348 355 380 380 362 359 361 398 407 380 349 386 350 382 371 361 374 400 347 361 361 338 359 342 347 347 340 342 346 320 365 313 362 345 329 333 364 367 321 346 355 357 330 321 355 371 356 372 345 358 364 372 352 364 392 371 392 391 387 400 402 385 428 413 414 447 440 402 451 458 441 466 473 487 473 476 461 486 484 487 493 461 480 501 517 453 465 500 465 503 506 497 509 460 424 466 443 440 415 427 459 470 427 424 452 443 464 410 368 410 383 383 378 359 390 374 370 346 348 343 333 310 308 316 308 292 304 291 321 287 316 315 284 269 287 234 247 285 266 257 246 261 274 209 209 231 272 236 240 229 229 212 197 222 240 226 236 212 208 181 211 194 198 175 187 216 186 217 213 176 209 211 191 208 201 189 181 195 189 203 182 200 169 204 181 221 203 179 195 171 196 190 191 194 187 205 177 172 178 199 184 173 178 185 192 182 164 173 195 169 167 162 162 146 187 174 169 150 185 173 182 194 183 172 177 161 168 203 160 174 174 183 167 173 166 158 158 190 156 132 191 161 162 170 160 184 160 168 172 175 159 173 158 154 150 168 148 160 179 173 164 147 160 159 156 163 134 152 164 142 162 165 149 173 133 155 152 181 152 162 144 155 160 152 139 147 156 158 164 139 150 141 148 148 154 150 142 153 131 173 138 139 155 165 155 172 139 147 147 147 138 148 152 166 152 130 161 163 152 168 151 134 144 145 155 148 170 165 135 156 157 144 156 146 144 148 139 147 138 146 155 135 137 138 148 166 138 139 141 152 135 179 135 174 147 148 159 147 130 151 147 123 136 143 131 126 127 139 144 142 143 153 118 157 151 149 154 150 154 149 151 140 137 133 125 138 124 156 136 130 126 119 144 139 133 146 138 120 143 138 164 138 143 136 147 149 162 126 141 145 142 156 127 148 167 147 134 143 151 128 136 136 131 146 135 159 113 154 140 157 132 142 148 123 163 136 136 140 167 120 154 148 129 132 133 135 144 136 150 120 160 130 114 148 140 146 138 138 126 151 138 140 128 146 112 121 132 122 119 127 136 128 128 119 125 125 131 137 126 129 133 142 150 129 133 119 132 139 124 139 134 130 128 124 142 137 140 133 131 125 141 115 129 122 143 134 124 132 134 121 137 151 134 133 129 139 121 124 120 130 124 120 126 129 116 116 118 118 141 120 127 145 137 135 152 125 135 123 134 123 115 120 117 125 137 141 113 152 143 125 121 105 114 140 139 131 121 119 131 116 111 125 135 133 131 127 134 147 123 147 136 124 134 133 125 140 121 103 132 127 131 142 128 134 127 146 134 132 115 118 120 127 122 144 131 121 125 115 153 145 130 119 151 124 140 137 127 125 140 128 143 125 145 131 105 118 121 119 140 116 147 124 121 145 111 115 135 121 143 125 104 135 136 132 116 117 124 115 137 132 127 143 144 110 121 113 106 155 121 107 125 114 110 118 118 144 124 124 148 118 120 121 122 150 128 107 118 127 115 109 113 119 133 127 141 129 130 128 138 128 121 143 116 129 121 122 137 123 107 118 119 130 125 142 114 120 123 124 120 110 127 111 126 124 116 121 119 105 146 100 131 142 122 139 128 158 115 151 132 112 143 106 113 141 127 143 125 138 130 128 130 114 119 116 128 105 113 141 108 121 129 114 128 134 118 126 126 123 108 88 139 141 131 136 113 117 127 107 117 112 142 119 108 119 102 118 125 118 107 126 102 121 135 129 108 119 108 121 135 119 124 98 119 117 136 111 116 125 125 117 131 120 135 122 121 101 117 104 151 115 135 118 128 128 103 117 95 115 109 111 90 127 116 103 113 131 125 132 121 117 118 114 112 135 110 133 126 111 131 109 111 131 112 127 124 123 123 100 125 125 114 143 125 132 129 139 106 120 115 124 128 116 128 112 142 111 114 141 122 121 115 108 123 112 131 115 132 120 142 137 101 108 141 128 120 122 119 117 116 118 112 152 124 102 119 128 126 113 125 114 106 112 119 139 134 124 124 132 129 118 126 123 120 108 120 132 144 118 118 119 130 139 120 131 130 136 130 125 113 120 117 113 118 109 120 118 121 106 130 123 126 106 129 123 124 139 110 137 138 127 103 116 115 133 120 127 119 118 126 105 103 126 148 131 135 121 146 126 129 121 118 126 118 118 121 102 119 119 137 137 142 134 140 123 123 104 131 113 116 119 139 149 123 117 122 117 117 126 135 119 133 112 137 141 133 128 117 113 137 133 129 118 127 119 143 121 140 114 117 135 129 131 116 131 127 99 143 124 138 110 137 138 120 117 132 125 119 110 121 128 119 117 122 113 116 113 116 108 132 124 120 108 126 117 140 114 105 119 133 128 116 130 127 112 123 125 121 117 114 110 112 124 126 126 121 99 119 134 119 123 122 126 125 130 109 140 116 112 140 147 119 138 120 115 120 117 104 90 108 125 117 120 127 134 137 120 105 99 116 107 100 131 112 108 111 122 125 132 109 111 125 117 110 130 122 131 124 106 128 123 109 115 114 120 114 129 113 126 122 132 115 116 122 117 112 136 115 129 130 113 149 128 136 138 117 99 134 132 124 114 105 115 111 111 131 130 148 128 138 123 117 114 128 133 121 130 126 110 129 136 135 137 105 130 102 117 148 112 118 139 113 143 130 129 118 123 137 135 127 115 121 135 134 113 123 108 123 92 114 119 112 104 137 116 130 135 109 151 124 118 136 125 126 120 123 130 119 117 111 118 140 134 115 104 113 127 142 116 131 110 134 120 115 139 142 140 124 140 118 118 134 111 125 131 111 110 120 118 106 115 131 123 145 125 122 146 135 108 124 134 112 119 126 114 135 127 119 133 136 139 123 112 151 128 135 126 137 124 120 105</intensities>
			</dataPoints>
		</scan>
	</xrdMeasurement>
</xrdMeasurements>
