<?xml version="1.0" encoding="UTF-8"?>
<xrdMeasurements xmlns="http://www.xrdml.com/XRDMeasurement/1.7" xmlns:xsi="http://www.w3.org/2001/XMLSchema-instance" xsi:schemaLocation="http://www.xrdml.com/XRDMeasurement/1.7 http://www.xrdml.com/XRDMeasurement/1.7/XRDMeasurement.xsd" status="Completed">
	<comment>
		<entry>Configuration=Conf. Reflection-transmission spinner, Owner=User-1, Creation date=2/28/2018 8:43:02 AM</entry>
		<entry>Goniometer=Theta/Theta; Minimum step size 2Theta:0.0001; Minimum step size Omega:0.0001</entry>
		<entry>Sample stage=Reflection-transmission spinner; Minimum step size Phi:0.1</entry>
		<entry>Diffractometer system=EMPYREAN</entry>
		<entry>Measurement program=C:\PANalytical\Data Collector\Programs\sample-1.xrdmp, Identifier={BB6687EE-8248-4E06-B0C7-67735DEB5D7E}</entry>
		<entry>Batch program=C:\PANalytical\Data Collector\Programs\P3.xrdmp, Identifier={110013A4-273B-4C82-A4D1-871885B7687B}</entry>
	</comment>
	<sample type="To be analyzed">
		<id></id>
		<name></name>
		<preparedBy></preparedBy>
	</sample>
	<xrdMeasurement measurementType="Scan" status="Completed" sampleMode="Reflection">
		<comment>
			<entry>PHD Lower Level = 4.02 (keV), PHD Upper Level = 11.27 (keV)</entry>
		</comment>
		<usedWavelength intended="K-Alpha 1">
			<kAlpha1 unit="Angstrom">1.5405980</kAlpha1>
			<kAlpha2 unit="Angstrom">1.5444260</kAlpha2>
			<kBeta unit="Angstrom">1.3922500</kBeta>
			<ratioKAlpha2KAlpha1>0.5000</ratioKAlpha2KAlpha1>
		</usedWavelength>
		<incidentBeamPath>
			<radius unit="mm">240.00</radius>
			<xRayTube id="1010048" name="Empyrean Cu LFF HR (9430 033 7310x) DK427586">
				<tension unit="kV">40.0</tension>
				<current unit="mA">40.0</current>
				<anodeMaterial>Cu</anodeMaterial>
				<focus type="Line">
					<length unit="mm">12.0</length>
					<width unit="mm">0.4</width>
					<takeOffAngle unit="deg">4.4</takeOffAngle>
				</focus>
			</xRayTube>
			<xRayMirror id="27020009" name="Bragg-Brentano HD" hybrid="false">
				<crystal type="Graded" shape="Flat">BB/HD</crystal>
				<acceptanceAngle unit="deg">0.800</acceptanceAngle>
				<length unit="mm">55.3</length>
			</xRayMirror>
			<sollerSlit id="21010002" name="Soller slits 0.04 rad.">
				<opening unit="rad">0.0400</opening>
			</sollerSlit>
			<mask id="22030009" name="Fixed mask 10 mm">
				<width unit="mm">10.00</width>
			</mask>
			<antiScatterSlit id="22010003" name="Fixed slit 1°" xsi:type="fixedAntiScatterSlitType">
				<height unit="mm">1.52</height>
			</antiScatterSlit>
			<divergenceSlit id="22010005" name="Fixed slit 1/4°" xsi:type="fixedDivergenceSlitType">
				<distanceToSample unit="mm">140.00</distanceToSample>
				<height unit="mm">0.38</height>
			</divergenceSlit>
		</incidentBeamPath>
		<diffractedBeamPath>
			<radius unit="mm">240.00</radius>
			<antiScatterSlit id="22090010" name="AS slit 8.0 mm (PIXcel)" xsi:type="fixedAntiScatterSlitType">
				<height unit="mm">8.00</height>
			</antiScatterSlit>
			<sollerSlit id="21020003" name="Large Soller slits 0.04 rad.">
				<opening unit="rad">0.0400</opening>
			</sollerSlit>
			<detector id="7010019" name="PIXcel1D-Medipix3 detector" xsi:type="rtmsDetectorType">
				<phd unit="%">
					<lowerLevel>25.0</lowerLevel>
					<upperLevel>70.0</upperLevel>
				</phd>
				<mode>Scanning</mode>
				<activeLength unit="deg">3.3482</activeLength>
			</detector>
		</diffractedBeamPath>
		<scan appendNumber="0" mode="Continuous" scanAxis="Gonio" status="Completed">
			<header>
				<startTimeStamp>2025-12-28T17:22:34+08:00</startTimeStamp>
				<endTimeStamp>2025-12-28T17:34:03+08:00</endTimeStamp>
				<author>
					<name>User</name>
				</author>
				<source>
					<applicationSoftware version="5.5a">Data Collector</applicationSoftware>
					<instrumentControlSoftware version="7.9j 20171025">EMPYREAN</instrumentControlSoftware>
					<instrumentID>0000000011214615</instrumentID>
				</source>
			</header>
			<dataPoints>
				<positions axis="2Theta" unit="deg">
					<startPosition>6.00558257</startPosition>
					<endPosition>75.99655438</endPosition>
				</positions>
				<positions axis="Omega" unit="deg">
					<startPosition>3.00279129</startPosition>
					<endPosition>37.99827719</endPosition>
				</positions>
				<positions axis="Phi" unit="deg">
					<commonPosition>0.0</commonPosition>
				</positions>
				<commonCountingTime unit="seconds">13.770</commonCountingTime>
				<intensities unit="counts">506 492 471 491 453 485 497 467 500 471 479 510 504 501 488 490 493 489 451 463 468 492 502 454 428 478 467 523 479 503 476 454 471 427 489 490 498 494 493 477 440 447 477 469 466 472 477 449 462 451 496 476 478 452 513 474 468 465 466 461 476 471 453 471 504 476 476 457 439 438 445 439 473 479 430 474 509 472 489 464 445 431 464 449 438 462 446 493 421 471 477 465 469 435 425 455 462 457 451 507 453 479 498 472 422 451 484 442 409 485 458 448 466 436 435 467 446 433 433 435 517 470 397 483 470 492 460 449 476 484 475 419 431 466 446 463 430 484 462 435 424 460 448 460 462 468 494 460 471 470 466 465 446 449 425 473 443 438 437 412 443 461 448 438 416 410 428 465 454 471 450 430 428 444 445 448 436 472 471 498 445 418 433 424 442 418 441 432 423 472 431 444 447 425 459 421 473 440 461 446 457 444 463 399 431 432 447 455 398 412 440 475 434 442 461 467 415 427 403 432 442 448 487 428 462 448 448 418 476 396 428 447 445 429 440 430 391 463 468 424 435 435 478 463 425 435 465 464 425 459 442 451 427 429 423 452 451 445 469 408 396 440 465 416 429 447 451 441 452 429 432 446 422 413 407 428 419 448 441 412 410 421 429 413 444 399 407 431 361 428 432 436 408 445 360 412 412 421 409 428 426 408 389 426 411 415 416 422 399 374 437 426 476 405 358 471 436 390 425 397 445 410 393 409 437 405 412 429 367 461 453 396 441 414 428 412 430 390 419 447 414 422 424 421 416 425 420 412 421 428 439 416 393 442 421 420 427 447 410 419 429 412 426 447 407 471 413 422 429 435 404 394 376 398 412 385 410 391 389 417 406 395 433 407 423 430 408 395 395 408 441 411 405 440 413 427 397 422 402 411 408 434 412 439 397 385 398 425 396 434 411 393 431 435 365 402 429 386 399 407 388 409 436 401 393 398 389 423 349 421 398 379 397 422 390 426 388 389 402 444 409 376 421 384 421 391 379 401 416 368 389 390 390 447 358 382 369 409 375 363 402 381 402 418 412 379 396 416 393 375 411 354 400 394 382 378 378 354 378 400 418 403 417 376 410 396 421 372 396 405 413 421 397 378 404 358 408 410 395 420 400 384 437 405 375 378 401 391 379 345 387 366 406 367 357 413 356 416 381 351 378 317 420 389 399 407 365 375 344 384 423 383 379 407 389 401 384 360 356 396 404 382 339 358 348 350 413 372 410 379 379 432 388 406 393 384 398 383 353 396 392 365 398 386 365 404 392 385 363 360 407 370 392 376 376 398 418 379 397 398 394 369 410 401 396 375 347 350 383 386 352 371 380 353 395 379 397 391 380 393 396 369 370 366 425 386 390 364 358 373 369 368 378 351 370 381 403 398 403 360 349 377 363 358 356 399 383 404 352 334 334 371 390 351 361 402 357 368 335 368 378 373 362 348 365 380 364 360 371 352 396 353 395 352 374 333 368 405 358 395 342 373 381 369 360 350 360 388 333 379 347 354 352 390 388 329 364 354 372 425 333 364 341 386 355 343 360 351 377 359 382 377 350 374 329 362 361 356 371 320 353 333 344 361 380 394 401 389 334 330 374 353 320 351 353 362 357 357 351 355 385 324 359 371 369 357 333 359 323 349 364 363 356 370 318 336 356 341 319 357 333 357 363 354 332 318 324 343 364 343 367 357 378 352 312 362 355 342 354 342 375 353 351 358 389 314 389 355 334 370 351 414 360 358 341 348 350 358 344 368 350 346 357 354 351 374 324 332 336 323 338 353 334 355 308 332 332 352 363 358 334 350 342 329 348 428 327 330 351 327 344 328 359 324 350 322 376 309 347 325 334 365 321 317 351 348 372 339 350 332 313 351 348 294 335 328 332 359 300 346 349 377 319 354 338 330 318 336 339 316 337 330 356 320 365 340 316 346 362 305 328 340 326 361 346 322 304 319 379 352 358 327 328 326 321 282 325 317 344 308 299 340 346 336 333 333 333 345 319 327 321 353 318 340 331 324 318 361 321 314 333 321 336 324 287 351 336 354 341 310 323 340 344 327 326 306 345 340 291 301 312 341 345 357 334 340 353 353 315 369 312 320 301 338 342 314 344 313 316 327 329 338 327 328 331 317 342 326 300 312 323 353 304 323 317 307 324 302 295 310 341 334 368 326 297 322 313 329 306 350 317 331 345 356 336 331 321 329 339 304 352 305 311 354 318 336 312 318 359 332 368 334 350 331 318 318 307 334 329 336 298 310 335 349 326 289 309 336 319 302 323 315 323 322 304 302 314 292 332 332 335 326 308 336 315 311 325 301 331 320 301 284 348 335 310 311 321 297 319 287 280 293 291 297 329 314 327 313 320 317 306 301 311 300 311 313 305 309 297 331 305 336 319 300 347 342 293 332 324 310 288 327 304 283 282 312 325 302 296 336 301 301 324 324 319 319 307 313 331 285 305 317 335 290 290 331 295 322 337 348 325 314 313 329 305 312 296 349 301 298 273 335 329 334 302 309 297 291 282 305 320 333 327 294 280 292 294 304 298 301 296 259 243 304 333 278 310 281 305 316 306 293 311 289 304 287 276 310 268 315 312 314 288 308 296 337 284 308 313 294 306 268 297 291 333 312 333 291 318 242 295 305 291 285 294 284 284 260 305 327 286 312 309 294 324 291 331 299 281 315 292 278 302 314 301 301 285 291 293 335 303 282 287 293 272 293 307 311 262 296 314 262 294 305 307 280 295 312 304 285 288 275 301 317 288 287 292 328 285 293 301 291 315 303 315 290 299 288 286 299 286 291 281 301 302 282 297 285 291 277 259 314 264 279 288 289 281 304 289 269 286 285 331 310 285 296 274 273 268 296 274 269 305 303 284 271 284 269 274 266 273 288 300 281 302 294 277 281 274 295 263 298 270 266 284 268 283 315 242 291 291 266 318 294 275 270 306 258 235 275 304 281 284 273 288 306 265 295 282 244 283 274 289 279 262 283 295 265 278 285 301 294 285 275 305 301 282 273 288 284 284 287 273 277 278 308 265 279 281 271 259 237 307 264 246 277 281 247 297 284 268 289 266 262 260 283 268 288 284 257 278 292 282 218 285 286 268 264 265 283 239 287 268 276 276 267 260 305 281 272 279 305 291 270 232 283 234 241 285 280 257 272 247 291 306 286 273 306 285 266 269 283 299 271 282 231 278 260 284 261 270 297 288 260 307 282 282 267 268 288 278 271 300 281 248 273 279 296 268 286 290 260 286 250 286 273 277 247 302 256 290 271 273 261 276 272 303 248 263 275 243 258 267 267 244 302 244 298 257 257 260 303 275 289 295 246 273 248 297 256 256 275 311 281 296 266 264 289 271 264 297 262 237 249 270 286 273 272 259 281 276 263 298 304 301 277 309 297 295 265 248 280 316 311 302 303 293 286 287 277 316 314 307 314 304 323 307 348 311 303 329 335 325 321 345 358 372 369 384 340 403 425 421 364 412 481 413 454 436 463 445 515 485 499 548 489 548 572 590 653 605 668 641 708 715 775 850 883 896 942 1039 995 1061 1153 1142 1244 1324 1376 1401 1505 1472 1544 1647 1630 1742 1689 1569 1567 1583 1567 1531 1455 1383 1225 1188 1052 970 870 851 733 737 635 591 529 486 503 448 457 446 417 410 370 389 401 361 356 380 368 332 318 308 331 313 283 316 316 302 308 323 292 347 272 322 304 295 297 287 284 290 271 286 243 308 303 266 287 264 282 232 278 278 300 283 249 273 287 269 262 299 291 287 273 249 271 301 299 242 266 267 268 271 274 263 263 256 246 291 240 260 273 261 274 264 250 238 278 231 270 264 260 260 236 241 272 258 270 260 231 233 292 231 274 261 225 250 221 231 218 245 251 240 262 231 266 234 236 235 260 217 249 240 243 266 241 234 228 265 214 227 258 256 245 230 292 231 241 238 271 246 283 256 214 232 248 249 262 233 251 272 247 258 280 277 257 248 230 278 268 240 241 257 246 246 247 269 239 225 216 266 264 283 261 270 267 268 216 258 211 232 256 218 216 262 229 287 239 226 239 216 264 265 273 250 264 263 223 244 246 258 234 238 229 258 231 245 279 240 271 234 238 236 245 248 248 238 247 227 221 221 242 210 238 229 244 214 240 258 235 289 214 230 262 244 238 244 220 249 248 229 234 258 258 266 268 239 247 247 237 225 241 230 229 269 232 236 214 228 212 218 251 229 228 270 240 246 242 257 245 230 244 260 222 236 220 240 231 269 220 243 244 209 233 248 244 272 242 241 218 227 230 248 232 226 233 227 256 234 197 203 262 223 249 221 215 280 224 256 205 224 294 238 219 256 225 249 219 242 237 226 256 265 250 220 216 244 245 217 268 212 215 269 225 222 224 222 279 259 241 242 207 225 235 247 221 287 244 241 231 258 241 200 235 275 208 266 228 199 247 225 224 223 229 228 244 258 215 238 226 225 218 225 215 218 245 233 237 245 243 239 258 242 216 210 235 229 215 212 216 216 228 224 234 250 248 230 216 227 213 242 226 234 246 217 206 233 228 240 211 233 232 282 226 232 217 238 237 241 208 232 233 230 216 223 216 240 238 224 240 246 259 219 257 225 229 206 237 222 267 221 222 230 207 211 217 181 245 224 227 226 228 222 245 233 216 204 182 237 226 228 233 225 236 221 234 227 239 212 216 249 236 240 245 237 245 229 209 228 227 217 223 216 239 240 237 221 234 226 234 232 233 220 232 210 228 215 232 218 233 235 233 239 224 236 199 217 225 223 259 231 230 235 264 230 209 223 234 233 265 226 256 247 224 233 227 249 219 229 198 229 214 240 208 209 250 241 199 225 205 219 218 225 198 245 211 222 219 232 212 243 231 242 236 208 219 214 214 214 212 215 227 226 223 236 250 193 207 193 225 220 231 232 225 221 217 238 224 217 248 248 206 248 203 226 217 265 246 238 218 246 207 250 201 207 223 211 257 206 227 207 226 236 213 211 218 202 196 235 225 236 241 204 235 200 263 239 214 231 229 221 228 212 231 227 204 202 240 235 202 217 206 210 221 232 203 215 202 205 213 234 216 219 230 221 206 222 215 213 230 213 234 226 232 221 214 206 205 210 195 219 216 193 192 187 202 220 221 201 220 274 233 185 218 206 211 215 215 226 235 225 203 221 226 251 196 214 208 227 230 230 232 202 217 196 226 196 221 205 229 187 197 189 188 202 231 196 209 205 226 224 194 209 236 206 207 239 206 215 220 205 237 208 210 211 193 218 269 202 199 196 197 205 199 213 216 201 209 241 201 221 206 210 218 200 204 237 234 188 207 189 206 203 202 231 209 191 212 214 201 199 199 224 233 233 219 216 235 214 246 220 204 209 191 210 218 180 217 210 220 214 227 206 222 215 202 198 208 231 219 201 186 204 220 228 193 244 173 179 192 202 222 197 188 198 211 186 207 204 219 225 192 227 198 222 226 236 211 216 173 210 233 214 220 190 216 214 238 182 188 207 212 197 217 207 200 185 200 224 194 208 222 188 201 196 206 194 200 206 210 219 209 212 206 198 206 215 200 208 209 229 221 216 233 184 237 206 194 193 216 196 196 208 177 192 187 178 200 185 214 187 187 188 194 190 191 220 212 202 208 170 221 194 221 200 194 196 204 215 214 201 191 178 233 185 216 203 192 201 185 188 211 174 197 203 219 241 178 214 191 207 184 182 193 188 202 220 189 226 193 178 191 191 191 191 193 203 190 196 220 202 187 194 190 172 179 191 207 207 221 196 217 195 212 207 184 190 204 189 216 207 207 199 198 202 184 190 190 226 204 204 204 161 198 183 201 181 184 188 160 208 189 201 197 213 206 189 222 189 197 202 169 207 200 168 173 203 185 181 208 177 202 190 176 195 200 153 208 206 196 203 183 208 195 193 208 216 185 181 213 204 203 185 209 204 196 189 202 200 202 182 168 191 196 203 235 202 206 214 234 200 207 200 207 226 215 198 202 206 188 228 225 212 199 229 193 215 207 210 190 201 215 222 230 194 228 212 220 205 210 217 217 216 212 177 213 193 185 199 197 193 193 195 212 197 187 205 190 203 215 207 171 174 188 213 176 184 186 170 189 179 172 159 175 211 190 184 195 184 195 196 189 196 187 206 196 158 188 182 175 173 170 190 204 200 177 172 180 197 190 146 192 181 184 193 199 178 204 198 231 195 212 197 195 197 191 209 184 163 188 188 181 169 183 179 184 187 200 221 190 200 168 191 193 205 189 194 199 178 190 190 179 203 183 190 189 169 182 184 189 175 191 189 190 206 185 199 204 185 206 166 183 204 191 185 175 178 187 181 180 154 188 198 195 187 179 184 180 158 193 196 195 188 172 187 164 196 185 211 180 202 176 167 187 175 169 188 188 179 181 175 198 163 170 162 204 209 188 194 182 200 203 226 191 183 206 197 215 189 199 175 199 171 172 185 163 192 171 204 197 180 181 202 185 188 210 218 168 178 179 202 193 193 192 182 181 193 188 178 198 181 184 203 206 185 170 219 189 209 214 206 209 178 215 178 209 194 176 208 208 200 207 232 204 213 203 214 176 198 210 180 210 177 215 188 235 216 220 218 199 190 208 192 220 200 230 260 241 235 214 260 266 240 272 261 283 244 242 290 298 296 310 324 313 333 341 390 370 384 398 443 461 492 487 516 519 572 614 606 714 702 754 819 877 892 918 1040 1054 1147 1156 1233 1264 1240 1295 1319 1293 1362 1339 1373 1326 1273 1231 1195 1218 1090 993 1000 944 977 836 831 742 792 638 645 646 619 547 588 482 500 459 516 422 465 462 459 427 433 462 414 445 413 453 469 470 509 482 481 545 534 569 606 581 620 645 680 695 815 737 778 820 845 871 963 1043 1000 1106 1103 1153 1205 1289 1318 1362 1413 1416 1485 1466 1530 1491 1451 1469 1464 1432 1470 1529 1406 1389 1440 1511 1504 1535 1581 1494 1550 1569 1558 1644 1645 1697 1738 1681 1834 1900 1866 1904 1841 1856 1792 1866 1809 1845 1721 1668 1691 1633 1579 1502 1410 1404 1279 1196 1105 1092 1023 968 913 826 770 725 704 722 635 587 557 599 514 489 462 484 444 434 394 418 381 365 394 379 343 406 345 299 295 320 288 306 271 265 284 251 309 237 262 288 272 245 258 244 257 237 224 232 256 232 258 247 236 230 235 224 256 238 232 205 211 212 224 196 231 226 200 219 223 225 232 213 200 207 188 213 224 200 204 208 192 168 169 185 167 224 183 192 192 211 205 204 184 184 178 184 188 204 158 197 171 206 180 180 194 189 189 194 161 205 175 170 184 191 170 200 194 202 172 165 186 181 196 173 187 192 151 170 192 178 178 174 194 185 180 175 190 168 168 181 153 169 182 168 178 185 199 188 163 195 186 176 192 164 171 196 174 187 154 181 158 195 177 171 191 168 184 173 158 156 178 158 160 170 145 163 173 169 159 153 178 183 168 178 148 220 162 153 156 168 187 141 179 165 145 164 157 173 148 193 169 177 188 163 184 157 152 193 194 167 180 159 158 157 168 186 169 169 169 207 154 161 178 159 177 166 177 150 164 182 157 149 159 147 138 176 167 148 159 182 160 177 181 188 139 150 175 176 146 192 160 170 170 156 168 149 158 161 167 152 173 168 176 160 162 158 158 168 147 165 170 182 163 180 154 176 157 192 179 176 169 142 157 167 165 169 193 170 148 156 156 138 172 172 142 167 176 183 151 161 156 184 192 165 165 172 173 153 158 189 142 155 155 175 147 155 168 162 160 170 175 164 169 158 158 167 153 148 183 153 180 168 168 150 169 163 168 172 153 162 186 173 158 156 173 163 170 176 184 191 156 160 180 168 165 150 154 161 164 160 154 160 174 177 170 158 164 153 161 153 176 188 138 140 170 168 176 162 155 146 160 170 162 143 159 173 154 168 168 158 172 149 149 192 153 154 147 172 147 166 166 161 169 166 170 198 137 169 156 150 182 164 142 154 175 168 154 167 169 167 136 149 157 153 149 164 162 166 144 153 154 162 160 145 175 159 164 141 165 161 150 152 150 161 168 148 132 187 185 131 164 165 156 141 174 173 182 162 164 141 155 166 141 155 154 137 147 144 168 162 141 114 160 153 167 160 141 163 150 176 170 172 145 161 153 142 144 151 169 152 148 142 168 159 143 171 160 140 158 160 176 150 163 150 148 161 143 161 152 159 148 156 136 158 176 154 161 162 161 161 171 161 146 140 172 149 170 192 160 170 139 176 176 161 158 165 156 162 148 171 179 158 175 157 140 157 158 157 173 165 169 162 154 148 151 145 166 159 154 146 165 151 150 178 144 158 152 132 130 162 176 156 169 154 161 156 161 150 169 156 131 166 136 154 144 154 161 137 164 162 149 160 179 167 185 167 162 197 165 145 152 143 146 165 157 175 150 181 172 147 156 159 163 158 155 158 160 146 145 148 151 184 175 153 132 141 171 152 158 152 146 158 150 150 154 157 148 131 160 158 166 155 172 159 173 143 156 163 162 154 168 164 149 163 176 168 173 157 173 176 181 179 171 195 195 185 174 219 195 196 186 182 206 203 220 201 204 247 242 256 247 226 263 239 271 292 296 301 294 324 378 309 363 386 403 401 476 431 475 456 472 483 506 529 499 532 515 534 481 433 449 485 462 452 452 474 371 390 354 366 332 352 340 333 310 288 312 279 266 249 206 249 225 216 197 196 197 195 222 204 184 188 200 173 174 208 174 193 184 176 199 188 208 175 189 175 145 186 141 162 174 187 178 171 173 186 170 188 188 185 172 188 185 167 191 169 183 162 221 168 203 161 182 168 171 180 167 164 183 183 159 162 171 189 178 180 174 188 186 171 186 193 164 193 161 171 168 184 180 189 167 174 173 174 203 199 185 161 180 185 167 143 189 149 173 147 163 156 177 141 144 167 153 167 163 191 143 165 157 157 152 164 158 149 152 171 147 174 162 158 158 137 137 146 157 148 175 153 163 154 168 162 171 138 140 160 162 156 148 162 169 163 155 151 166 169 146 170 162 151 161 176 134 174 181 159 159 141 166 161 148 147 155 136 130 171 167 145 157 159 168 154 161 141 169 158 146 164 151 134 161 143 143 166 153 159 157 156 158 166 135 154 139 165 143 144 146 169 144 180 159 162 149 180 142 141 173 157 152 140 140 161 168 151 161 168 158 151 161 163 166 188 159 136 180 174 173 154 174 152 179 163 167 195 169 156 157 145 160 168 178 173 183 167 141 172 179 187 189 190 157 187 191 181 184 148 190 194 193 204 192 162 178 176 182 166 180 204 205 191 195 207 190 204 214 228 221 243 198 241 242 267 239 257 270 292 305 306 288 307 309 338 306 381 386 419 444 424 483 494 522 524 566 571 598 599 684 659 732 705 736 757 789 834 850 856 902 884 912 898 907 887 860 849 876 817 813 766 733 732 675 627 657 654 564 623 534 561 496 477 405 393 398 394 368 358 334 307 284 274 293 247 266 244 231 240 213 214 227 227 233 234 192 213 198 200 211 204 192 177 170 187 183 198 189 179 173 201 198 170 157 172 177 173 164 175 180 172 188 188 179 190 147 153 152 163 159 151 164 168 173 167 172 169 179 184 172 170 160 162 151 152 161 162 170 140 170 157 147 182 148 174 160 157 158 159 157 165 171 135 181 160 155 136 154 161 186 157 158 155 186 159 141 149 173 175 148 151 152 163 149 149 170 145 162 162 117 146 168 163 139 186 166 181 154 165 152 171 159 181 148 182 169 156 177 159 171 166 161 179 182 169 161 171 152 179 190 180 161 161 180 127 154 172 171 154 175 176 157 157 160 192 167 179 168 180 165 176 157 184 177 183 167 177 153 168 181 193 186 202 168 151 173 204 154 185 170 192 207 173 172 171 181 191 193 182 195 214 183 200 202 204 190 202 201 201 182 186 198 217 237 206 211 213 222 261 234 249 231 234 227 267 245 277 258 271 265 279 306 294 294 333 319 352 328 353 394 393 413 445 468 479 497 525 588 636 624 676 741 793 821 879 928 1037 1069 1156 1250 1368 1376 1517 1582 1583 1682 1725 1823 1815 1832 1915 1893 2050 1999 2022 2018 2002 2000 2050 1993 2061 2002 2031 1963 1977 1973 1885 1852 1769 1803 1744 1729 1623 1578 1506 1479 1415 1393 1296 1300 1178 1115 1088 988 1018 939 847 879 795 773 717 674 648 616 595 534 550 495 505 434 396 450 420 381 425 312 337 349 341 315 337 335 307 321 291 294 289 287 303 313 275 250 265 271 231 287 245 216 227 224 243 256 228 213 219 236 222 221 226 242 204 243 216 201 221 205 201 220 200 211 180 187 210 196 201 187 189 207 218 197 212 206 195 194 164 196 206 197 188 167 186 175 181 191 180 181 174 173 180 196 198 184 177 179 175 178 161 174 169 171 149 168 171 156 190 169 174 178 156 146 162 186 161 180 170 158 151 174 159 168 185 172 167 175 160 159 155 157 171 154 153 142 189 173 191 163 157 161 149 170 166 151 145 142 148 145 160 161 167 157 151 153 153 170 139 136 159 150 144 152 176 143 131 166 156 155 166 164 174 169 160 162 155 151 168 143 140 154 157 150 148 145 139 156 186 156 155 149 153 141 168 141 147 156 169 163 136 162 158 159 183 177 182 156 162 179 143 157 164 159 161 134 179 138 171 196 167 170 174 163 172 179 186 190 188 192 201 185 201 190 203 172 209 237 196 241 204 224 228 260 259 247 241 264 266 268 316 288 347 329 336 338 332 327 347 331 372 356 344 358 362 351 351 353 376 331 340 341 306 341 354 331 306 277 275 275 266 217 297 278 247 261 191 272 222 212 197 214 212 225 184 191 187 206 195 193 168 195 157 201 181 209 187 166 179 170 163 217 206 171 182 199 191 202 188 194 159 202 206 185 194 194 219 212 209 227 219 206 196 213 242 240 244 230 279 309 296 268 312 308 335 360 382 426 422 461 494 510 548 682 684 709 793 777 813 820 937 900 858 894 883 915 851 844 823 773 813 793 728 693 684 661 644 650 601 544 502 539 492 473 419 391 346 385 300 299 308 282 265 243 266 237 247 232 244 215 208 222 209 189 208 170 172 192 194 174 166 180 173 154 175 184 180 166 156 149 151 190 162 173 165 167 166 159 171 157 172 176 149 155 147 160 154 145 145 160 148 177 146 155 146 148 145 167 161 164 142 168 163 140 160 172 153 157 154 167 152 148 139 171 126 137 145 152 158 145 147 140 129 123 161 173 142 142 160 126 115 160 160 149 137 146 125 135 122 149 147 146 155 156 152 164 150 122 136 135 134 150 139 142 128 156 149 158 132 141 141 138 138 157 153 138 148 149 148 158 139 160 160 127 143 162 162 170 141 152 183 179 169 147 158 172 190 159 165 165 162 162 172 193 174 190 200 184 192 181 211 200 206 222 197 207 225 224 230 214 236 230 285 290 258 257 275 320 316 333 291 355 336 345 345 398 369 376 368 380 372 396 431 460 432 454 444 441 431 454 456 436 446 432 421 445 412 381 384 399 361 389 363 383 345 359 339 338 320 321 303 294 286 291 266 277 268 234 218 223 211 220 239 207 199 217 183 192 191 202 185 174 174 171 161 174 161 156 158 184 177 164 160 170 174 172 190 138 190 139 144 161 145 168 134 148 151 133 122 144 150 149 154 140 132 137 139 125 142 147 157 167 150 142 132 132 122 146 152 156 134 140 132 153 144 135 146 137 128 146 149 129 153 146 147 129 124 140 158 126 151 139 140 141 148 163 129 143 140 136 153 126 148 136 157 150 126 156 119 118 127 131 132 139 149 152 138 137 134 139 134 124 146 128 130 147 140 122 143 136 139 142 135 134 145 133 150 155 156 138 139 144 137 128 163 173 168 169 140 161 173 147 155 165 144 148 145 156 190 146 152 158 171 171 159 151 164 168 172 162 154 173 157 169 180 157 159 191 191 163 184 180 192 208 203 222 220 207 233 208 238 229 257 242 278 235 276 275 298 298 328 350 353 379 358 342 378 416 456 477 504 512 577 599 611 636 691 771 753 824 852 871 941 934 906 1004 1042 1023 1120 1067 1085 1056 1072 1087 998 1074 1018 1004 972 974 921 970 928 808 887 812 814 798 712 686 697 661 609 604 577 568 504 493 459 467 450 408 355 352 376 323 334 306 296 294 287 313 259 238 263 241 257 217 211 239 219 232 194 207 184 176 201 175 189 173 191 182 177 174 195 190 163 172 175 149 185 178 175 165 145 168 154 173 151 157 151 180 155 147 153 158 141 157 142 139 138 142 154 158 127 154 172 165 156 125 159 133 140 141 172 149 152 140 167 150 156 147 142 152 151 146 141 169 160 158 162 161 158 149 185 154 142 125 163 154 147 147 142 148 134 162 157 163 147 144 147 131 147 139 143 133 146 136 135 144 119 151 149 147 130 128 146 141 139 133 150 140 144 147 150 129 143 144 136 150 139 159 148 137 128 147 154 135 149 143 148 146 154 142 135 133 155 137 153 140 170 151 152 140 167 147 150 147 170 148 134 166 132 139 172 135 151 150 128 162 149 177 163 163 161 145 164 182 146 160 179 195 165 167 163 171 226 185 172 197 208 201 219 198 229 193 232 222 244 248 250 268 271 284 281 267 288 347 310 311 350 334 376 376 411 365 438 418 422 466 475 472 473 463 502 489 495 509 478 516 485 531 497 466 528 498 464 457 457 481 464 439 449 410 421 417 415 383 361 392 396 404 365 377 357 320 332 300 319 307 321 294 288 322 258 272 271 256 256 248 266 267 232 288 275 234 248 239 277 275 222 292 224 264 261 249 290 270 262 260 284 280 297 318 311 296 300 319 309 370 342 400 351 405 451 474 475 518 490 600 563 629 635 702 766 840 864 890 1020 1060 1199 1246 1280 1371 1407 1514 1535 1617 1655 1737 1716 1689 1713 1671 1739 1572 1642 1635 1629 1518 1499 1599 1482 1401 1408 1354 1294 1300 1293 1165 1141 1050 1072 944 919 911 837 808 747 704 653 629 603 557 499 469 485 442 401 409 351 349 350 327 294 292 306 311 285 260 221 297 238 265 225 230 228 208 225 221 188 191 217 197 196 179 202 205 186 193 207 196 179 179 160 178 153 175 156 186 184 175 187 166 195 174 178 164 148 145 173 173 158 142 141 157 154 167 144 152 153 117 149 157 155 175 159 137 136 157 152 157 146 148 140 126 154 149 147 158 142 165 129 147 155 146 141 161 129 156 128 152 142 155 163 139 143 155 159 144 135 150 164 130 152 131 156 147 138 140 131 139 130 143 140 138 153 170 145 139 130 144 151 166 165 149 161 155 152 177 151 147 149 173 154 149 166 173 168 160 173 187 186 173 155 175 184 168 177 179 191 162 189 184 192 155 183 183 171 168 149 183 189 172 190 178 157 167 191 165 148 126 171 151 168 170 161 148 162 138 147 141 150 156 146 164 153 117 145 139 110 158 126 155 141 137 137 139 151 148 135 152 140 124 122 120 133 107 116 134 124 142 148 135 129 134 145 123 132 127 137 138 121 131 135 143 142 136 113 144 148 124 131 149 128 116 145 117 123 125 129 138 120 137 122 140 132 132 134 135 145 138 142 128 121 122 140 133 157 158 137 138 147 133 128 137 141 124 126 139 140 135 142 140 127 115 144 149 142 117 146 137 130 147 122 112 134 151 133 123 150 128 130 140 135 104 127 130 132 141 121 126 136 127 144 140 141 117 115 122 106 134 125 121 130 163 128 118 126 155 130 138 134 119 140 132 123 120 129 122 135 120 141 129 148 125 141 153 134 137 128 122 138 135 114 160 126 151 126 140 140 141 137 132 126 133 131 136 125 147 142 131 136 131 131 133 112 135 144 149 136 110 143 139 124 150 148 156 155 139 160 181 167 154 143 174 142 177 157 171 158 160 158 145 152 149 163 154 144 156 138 157 117 143 165 141 141 132 166 147 131 148 129 155 155 143 139 132 158 134 139 111 114 141 150 143 116 140 138 135 153 133 132 129 118 132 123 132 138 134 147 139 129 153 144 134 122 142 129 121 135 127 144 125 116 124 134 132 125 123 114 137 129 115 127 140 144 145 146 146 142 142 119 129 106 120 126 122 109 133 143 127 134 147 134 137 145 142 127 119 151 145 137 148 127 116 117 131 136 137 140 127 130 124 138 140 118 121 154 123 134 130 126 136 158 138 139 132 146 142 136 152 148 144 142 158 139 160 139 122 110 130 139 143 153 120 128 125 168 135 126 141 139 146 144 134 128 117 148 142 162 156 154 150 150 153 153 147 186 156 150 164 145 136 144 163 148 147 156 144 132 144 142 173 143 154 145 175 142 169 162 162 145 139 189 165 144 168 140 153 145 170 141 153 148 146 173 162 168 166 145 178 154 169 147 150 141 157 166 152 154 174 133 155 144 156 144 163 140 149 151 155 140 128 175 146 133 165 170 149 155 165 141 172 170 148 155 142 152 164 181 167 163 185 168 172 174 160 163 163 162 181 173 203 170 224 161 158 176 188 188 184 188 192 203 191 215 194 194 223 202 202 190 215 183 202 222 234 217 202 236 206 198 217 189 220 244 224 230 207 214 185 190 206 214 213 217 230 188 215 197 230 227 185 213 209 198 204 224 190 179 186 202 174 211 186 179 170 195 209 180 193 189 180 163 166 185 188 173 188 163 153 153 179 161 162 166 201 155 190 196 187 160 156 187 169 162 145 181 178 170 174 145 173 185 144 151 164 169 145 160 158 173 144 156 144 153 141 162 156 160 145 159 158 142 173 142 133 133 163 134 160 154 147 135 147 158 161 150 161 172 153 178 165 169 159 141 160 141 145 157 160 172 153 136 139 145 164 191 154 162 134 158 152 164 174 156 176 160 207 168 193 151 171 177 181 158 160 172 170 176 166 156 186 156 197 178 173 171 190 174 165 177 168 172 172 204 201 190 185 170 176 179 188 182 185 199 194 194 205 190 174 207 214 209 200 195 222 216 217 221 258 212 237 257 245 272 223 271 267 226 266 266 260 249 285 248 261 289 273 262 285 241 288 219 263 228 233 225 226 282 231 233 235 242 220 229 192 214 207 210 209 228 206 198 197 223 216 215 174 199 154 185 178 176 199 157 172 174 208 189 177 185 153 148 162 156 158 165 146 195 164 161 155 150 142 139 141 163 131 146 160 140 152 138 161 142 144 134 145 139 130 122 154 146 131 123 116 143 140 129 144 126 134 119 148 121 125 142 161 137 141 114 125 148 148 136 145 124 134 143 138 129 115 126 132 127 130 115 124 122 129 124 111 116 115 151 136 130 118 134 128 130 162 125 140 111 127 132 134 140 120 131 138 133 115 134 144 134 137 129 140 138 136 126 126 148 120 152 137 131 140 123 123 130 124 141 137 147 130 130 139 124 114 122 129 145 128 149 138 125 142 148 128 143 142 120 128 137 142 156 139 120 131 143 120 157 129 127 138 127 140 138 147 151 134 118 131 121 134 144 141 151 136 152 140 142 138 130 123 150 141 147 134 138 113 140 152 154 140 133 131 132 133 163 123 137 119 132 127 157 151 111 119 119 144 140 155 126 137 129 134 125 131 127 124 143 125 119 131 149 127 119 120 138 148 143 117 130 123 136 134 135 148 140 140 146 120 113 135 114 130 139 130 131 127 152 129 129 136 119 122 127 142 125 129 134 131 123 106 118 142 125 127 132 139 124 142 135 111 144 146 139 140 128 110 121 120 127 130 119 130 150 131 140 128 127 123 135 127 124 126 113 88 138 128 120 101 135 121 134 122 138 144 148 136 102 124 135 140 136 118 128 122 121 150 128 113 130 120 107 133 130 127 133 132 126 129 159 143 143 129 121 135 111 127 132 141 137 137 134 138 133 139 141 130 138 122 118 142 141 135 121 155 138 141 150 139 119 116 127 150 143 131 140 158 140 128 141 127 145 128 134 135 127 151 133 139 164 150 153 144 156 179 140 151 164 158 187 166 143 178 183 168 158 182 185 180 206 183 171 196 190 203 207 167 203 214 200 229 228 259 258 292 234 261 289 308 313 345 377 386 402 408 435 485 495 488 587 528 596 577 653 604 683 687 735 745 774 795 733 723 738 719 725 736 715 742 712 711 650 700 629 638 645 673 606 663 605 613 558 573 570 525 496 501 492 469 439 463 426 443 340 389 379 363 324 323 288 306 262 262 245 267 236 229 221 199 225 173 193 224 166 192 179 177 185 177 164 168 162 172 169 187 167 152 165 174 157 148 162 147 149 173 150 133 151 153 151 146 161 151 139 161 125 175 156 157 163 151 144 141 145 154 161 129 150 152 151 129 144 145 142 159 154 145 134 153 154 151 135 135 143 143 144 149 153 165 150 159 172 179 163 156 190 194 187 177 180 143 184 191 199 158 172 190 187 199 172 209 210 208 212 207 189 201 212 221 217 247 240 226 237 215 237 235 231 235 239 214 257 226 206 225 230 219 248 267 250 227 235 265 257 278 245 229 236 229 248 268 227 259 284 277 299 286 292 279 307 295 247 290 277 309 300 248 321 280 318 290 312 325 287 318 298 315 318 287 303 297 282 309 303 314 312 311 306 315 309 304 317 303 277 301 273 292 275 301 314 286 320 295 281 264 268 294 296 242 261 263 242 237 221 281 245 210 247 217 218 203 207 242 217 198 218 204 202 207 196 191 205 192 168 200 231 173 152 146 167 178 166 161 161 142 168 162 150 165 130 150 163 151 162 166 143 169 146 169 158 143 160 150 134 146 147 146 134 146 148 146 141 111 124 156 165 123 127 116 131 135 125 151 154 141 122 118 136 132 117 139 120 137 119 137 139 124 120 131 117 130 136 150 132 135 156 145 128 116 134 116 145 136 129 134 125 148 153 122 133 124 129 112 134 129 113 138 113 98 129 126 108 138 115 132 124 140 131 120 138 141 117 140 126 117 127 113 124 99 117 126 113 124 110 138 115 133 135 115 114 127 116 134 125 116 123 141 118 127 113 119 122 135 118 122 136 124 118 132 103 121 131 136 112 127 144 110 135 127 108 100 142 122 123 109 119 99 131 117 134 118 114 122 95 122 127 105 104 126 109 119 123 118 126 115 111 133 105 113 130 116 114 132 144 118 127 120 135 128 119 130 122 119 113 118 122 121 122 140 121 120 137 129 127 115 110 126 133 121 120 117 118 136 117 136 114 150 135 145 120 115 138 119 123 131 137 135 130 106 118 111 116 126 143 147 115 137 102 125 114 118 125 124 116 129 125 139 119 111 122 139 136 121 123 120 134 150 101 145 135 113 102 132 129 120 114 121 132 130 119 127 132 131 122 138 126 121 109 128 136 128 119 123 113 115 108 105 125 144 130 104 108 108 121 123 135 127 145 131 121 112 139 118 95 138 142 125 133 120 146 127 107 123 91 161 129 115 110 145 139 130 129 123 141 155 106 150 138 122 126 125 117 127 137 110 141 132 144 128 128 137 137 129 139 133 157 133 130 140 129 139 121 131 137 124 114 131 122 124 141 146 137 134 131 144 149 127 133 136 152 137 135 146 138 140 123 138 128 150 142 131 153 145 161 124 141 147 132 123 137 128 137 125 156 164 147 128 153 157 153 139 159 133 158 177 171 157 154 177 164 168 155 154 171 159 155 198 160 174 160 164 163 185 192 183 177 151 167 190 186 219 206 224 213 222 227 222 216 210 261 221 257 240 248 266 274 306 264 312 305 295 311 360 334 361 349 436 440 467 444 456 534 542 578 589 652 660 682 812 778 881 878 904 913 988 1032 1103 1125 1102 1192 1186 1258 1239 1291 1308 1345 1315 1288 1294 1316 1316 1278 1297 1305 1231 1189 1270 1243 1223 1213 1222 1127 1137 1190 1149 1173 1193 1085 1106 1082 1102 1022 985 973 933 940 949 901 870 837 861 797 757 723 661 748 655 645 599 602 567 584 514 518 529 507 519 421 389 452 422 393 374 391 367 359 368 346 327 310 332 284 286 289 293 245 304 245 274 284 287 270 247 247 268 219 222 214 259 233 209 200 187 228 228 216 209 223 194 208 201 202 201 196 231 180 191 193 199 238 195 201 196 211 207 198 208 185 193 170 222 195 191 181 198 201 215 194 194 208 187 193 219 219 211 217 186 209 185 206 204 190 213 211 188 188 191 175 183 176 178 173 166 181 184 180 186 183 174 188 161 182 169 178 153 145 156 163 163 184 168 163 140 168 155 163 157 167 142 161 135 146 155 164 134 185 137 150 168 138 150 138 136 147 118 140 148 159 133 157 129 138 154 151 137 139 120 161 124 147 129 138 108 108 131 146 129 150 117 122 142 143 132 130 131 127 116 121 143 147 136 149 140 138 150 145 158 142 139 145 134 133 130 142 143 129 136 155 141 150 147 137 146 153 123 116 150 141 143 157 120 138 146 127 135 156 153 142 120 164 139 154 135 147 156 171 122 129 150 141 134 124 132 139 139 142 133 144 138 139 142 120 133 137 124 152 134 146 132 145 128 133 156 127 137 146 140 117 142 126 140 127 141 139 137 151 154 112 148 136 141 140 151 130 157 163 142 151 152 142 156 138 172 171 145 175 155 176 155 187 167 158 168 159 177 144 169 160 174 180 168 170 151 171 129 164 150 161 158 143 154 159 151 152 136 137 145 166 154 149 156 177 164 155 155 145 154 168 164 147 159 146 130 122 143 138 135 132 142 152 151 144 116 155 120 142 135 145 139 151 150 177 152 143 174 151 152 142 167 137 144 172 142 132 146 155 152 171 150 169 155 168 173 142 174 175 154 190 145 183 173 179 153 164 156 194 179 160 169 147 184 195 195 210 200 212 222 204 243 205 233 244 266 224 237 256 250 271 286 281 291 290 283 311 316 322 332 338 351 338 361 392 364 420 434 430 464 417 450 448 473 454 503 496 522 522 519 549 570 533 563 591 591 583 580 543 551 574 616 540 561 529 578 556 547 575 528 536 519 534 559 515 529 484 499 452 497 496 440 430 413 441 431 430 391 427 406 425 395 405 413 339 351 343 334 330 332 329 335 317 313 286 295 320 320 284 307 302 269 282 275 271 273 291 269 259 246 269 263 275 241 236 285 242 226 262 256 267 250 262 267 251 239 283 278 262 226 274 242 221 258 256 238 263 269 237 244 232 241 247 238 242 231 242 206 242 259 256 212 225 189 214 218 227 187 222 202 204 201 203 216 208 208 214 196 185 169 205 150 179 177 172 168 185 183 187 184 175 187 172 169 166 155 167 171 147 182 149 152 158 134 156 133 142 173 141 150 155 125 145 144 137 153 132 127 127 149 158 137 146 142 140 137 142 123 139 148 141 125 142 140 119 133 150 138 125 120 134 125 135 114 118 139 140 125 95 115 109 127 121 124 121 134 132 141 131 153 133 134 122 143 140 128 152 126 135 119 134 132 135 115 132 140 143 117 131 130 125 136 117 125 145 118 107 128 134 115 141 111 143 135 140 143 130 130 127 95 126 145 130 132 118 129 123 148 148 130 126 140 122 112 122 125 123 128 107 138 145 132 111 125 143 147 111 139 115 114 109 121 117 137 140 106 122 124 140 139 121 111 126 114 129 145 118 122 114 153 134 131 126 119 128 118 128 124 127 138 122 140 133 121 134 113 137 112 139 136 145 135 117 136 142 132 113 130 142 130 135 131 136 148 125 150 134 131 135 133 135 127 150 127 131 127 129 145 132 146 131 127 152 161 135 125 124 147 155 135 148 124 143 148 145 130 152 155 141 135 140 138 143 157 142 175 153 175 155 164 175 146 142 142 164 139 136 159 165 176 138 160 156 162 177 175 181 180 183 148 152 146 166 192 177 149 180 182 190 182 182 192 180 188 156 190 184 201 185 174 214 206 198 207 190 209 210 201 191 213 212 218 228 199 182 209 221 219 214 242 219 225 214 214 191 202 215 220 213 210 216 212 191 188 189 223 228 227 229 198 202 183 186 192 176 213 192 191 205 189 182 219 213 206 186 193 179 227 208 159 186 186 153 192 170 175 190 179 185 149 169 146 161 168 171 176 152 148 163 162 136 156 168 164 152 150 161 135 165 144 153 157 139 137 157 174 145 128 152 156 150 147 180 159 162 161 153 155 155 162 153 141 149 143 152 170 155 161 152 158 142 154 159 147 155 172 155 156 149 185 160 145 171 166 196 179 201 178 185 190 193 213 196 193 222 227 177 221 233 197 243 213 235 248 242 238 258 277 261 286 280 309 295 327 318 267 363 299 313 336 316 346 407 340 331 348 346 332 316 344 324 350 341 310 334 349 344 353 339 345 368 349 297 325 335 316 298 286 301 277 306 285 313 266 278 256 283 269 267 256 256 263 265 232 231 224 276 220 222 217 234 203 201 206 198 208 210 189 170 205 172 171 179 183 179 162 170 167 149 138 166 168 168 134 147 160 145 148 140 158 140 140 161 143 139 160 152 162 137 137 139 158 171 136 120 125 133 146 138 132 152 145 140 142 159 142 132 129 131 144 137 129 134 135 144 126 128 143 133 130 163 148 150 140 147 144 142 160 139 139 128 130 146 137 146 145 157 129 137 146 145 152 150 137 172 155 145 155 147 158 164 156 157 155 168 176 161 162 187 141 172 170 183 161 175 177 172 164 153 189 155 170 185 191 188 166 194 155 174 156 170 152 155 169 155 160 168 167 170 178 146 163 178 175 165 138 149 154 160 167 183 163 157 159 177 176 143 159 164 161 164 175 175 154 162 179 142 151 144 156 170 157 153 141 181 148 168 141 163 167 191 154 184 157 168 193 152 163 160 193 180 181 181 178 225 162 209 185 200 185 192 194 196 210 196 204 240 205 199 230 225 221 211 231 288 243 279 274 280 281 281 306 280 297 304 323 343 362 358 362 372 352 419 443 478 469 509 545 556 536 572 572 552 604 629 613 616 618 623 551 590 563 560 617 595 557 515 542 529 547 527 502 542 504 480 507 491 471 437 466 412 463 437 430 435 452 432 407 437 403 404 362 331 353 366 329 339 340 335 291 286 265 272 304 260 263 242 247 216 225 225 208 216 200 210 241 178 195 179 172 202 188 179 162 185 181 193 158 191 166 177 159 178 179 186 162 169 159 160 161 184 186 157 187 177 173 171 163 156 178 109 141 166 155 180 164 152 172 139 151 171 169 170 161 154 140 166 151 172 141 154 137 152 156 151 143 161 155 136 170 155 155 135 133 139 167 154 174 140 123 174 146 146 131 123 139 140 161 145 137 161 133 162 121 150 157 127 140 145 157 137 158 143 140 133 147 157 118 126 172 143 138 131 152 152 126 123 121 164 167 144 149 141 138 153 138 158 125 153 152 147 148 160 146 134 148 154 139 135 149 157 150 154 170 173 181 161 153 150 161 161 170 171 158 170 150 179 188 182 174 168 196 185 183 208 195 178 204 221 212 213 256 221 234 244 280 287 285 317 307 315 347 352 392 409 399 420 484 511 498 599 644 606 654 691 691 709 775 739 814 791 826 789 784 788 750 780 789 729 725 694 697 674 677 693 636 667 626 657 624 631 616 611 638 572 595 599 645 595 587 548 603 553 552 525 534 520 503 446 442 441 442 444 418 417 337 335 336 309 305 327 285 284 257 265 228 243 237 246 235 208 224 204 197 191 202 193 179 168 174 153 174 158 156 173 155 168 158 163 160 169 148 170 158 145 141 161 143 144 174 141 140 136 140 160 157 146 133 154 139 148 143 157 131 153 133 139 129 134 121 141 142 140 117 137 127 124 135 130 129 133 114 130 119 145 149 145 118 127 147 129 129 122 126 125 162 131 118 121 139 143 135 135 151 124 137 122 121 139 142 151 154 138 132 144 92 121 123 118 125 123 152 125 133 142 127 131 125 131 144 150 136 118 136 139 147 126 147 129 147 130 133 125 163 137 133 139 144 127 124 163 130 140 151 140 121 132 134 121 131 145 140 134 133 144 147 123 145 120 143 156 165 146 149 154 148 158 174 163 163 188 182 178 174 188 168 173 164 172 161 160 157 193 204 164 174 140 186 173 176 173 184 190 190 177 167 160 187 187 193 176 163 178 175 187 188 190 145 161 149 149 164 179 177 143 150 165 163 170 173 173 160 178 172 168 179 141 178 158 152 152 171 158 146 138 152 163 152 165 154 169 174 144 162 159 162 145 168 157 150 140 135 132 159 137 161 138 130 148 132 155 152 158 144 144 135 152 153 140 184 134 162 173 173 160 160 184 187 193 160 177 183 181 184 174 186 168 181 195 183 182 201 209 187 178 209 215 222 208 209 221 216 195 229 217 235 228 279 230 229 245 262 248 236 238 274 292 244 246 246 236 298 258 270 285 275 271 278 264 268 273 289 262 286 274 278 300 270 297 249 283 266 268 286 284 282 272 270 265 283 270 266 259 262 279 257 262 278 268 233 249 258 272 271 287 268 257 249 279 246 300 241 257 240 223 250 257 228 242 231 214 223 211 228 239 218 228 222 204 199 208 210 219 222 200 235 222 206 199 195 214 175 222 199 203 224 200 197 225 185 195 192 219 176 198 173 209 187 174 186 185 162 174 158 156 139 194 158 166 178 188 162 165 191 164 167 179 157 183 173 172 175 157 155 171 153 146 149 140 142 141 150 146 165 141 167 137 136 153 162 165 161 178 129 129 138 147 158 147 167 151 142 130 164 147 147 123 158 174 136 151 155 174 164 142 154 154 154 160 129 136 149 143 156 144 124 149 157 148 152 131 132 139 125 122 132 149 146 146 143 155 176 146 153 154 120 138 140 156 141 142 133 137 141 112 147 131 143 171 139 123 117 148 138 139 133 132 117 132 126 130 139 126 171 127 128 114 144 142 123 156 147 136 134 153 119 136 123 135 138 118 141 135 131 146 131 125 129 142 138 135 169 165 146 159 134 135 133 121 129 121 124 125 139 131 139 124 115 133 132 141 118 126 131 121 141 126 118 133 122 136 126 130 103 123 114 125 144 129 118 134 153 128 130 130 134 130 121 128 125 120 140 132 102 119 129 114 147 128 119 132 128 111 136 109 130 142 116 147 120 128 139 139 131 124 109 129 143 121 126 125 116 129 149 111 133 117 108 124 114 145 125 126 128 129 114 128 125 141 116 102 121 109 119 123 116 108 119 119 132 122 122 119 141 117 128 110 116 120 130 137 114 129 125 114 139 151 130 115 125 119 140 126 128 115 116 134 107 125 126 107 118 107 143 112 107 126 130 108 113 128 144 114 123 127 146 121 112 121 126 135 126 105 120 118 117 119 119 146 106 141 125 121 102 128 113 114 127 118 119 118 111 136 118 120 100 109 121 112 139 124 131 126 136 139 104 133 114 119 140 126 124 125 103 127 123 118 106 134 128 141 122 125 122 128 115 135 127 132 107 126 156 135 157 132 136 115 139 119 118 131 142 107 127 110 122 139 149 138 120 128 130 153 126 141 134 140 141 144 123 151 153 130 126 133 147 148 152 144 143 140 142 147 153 131 146 157 160 150 148 146 142 156 159 154 177 153 175 169 147 154 177 203 161 168 181 179 183 161 207 202 208 187 187 197 206 220 204 205 221 235 229 209 207 240 249 235 265 250 242 269 283 269 244 263 248 235 260 284 271 265 283 268 286 291 276 260 282 280 315 327 260 311 259 278 277 280 257 295 308 317 292 266 248 235 285 277 259 285 309 296 248 250 313 276 298 261 243 272 245 246 274 269 265 260 243 275 242 264 259 232 264 275 225 237 234 226 234 226 225 256 211 244 230 227 229 223 229 240 218 220 206 216 229 220 215 237 220 222 218 214 223 216 247 231 231 234 229 212 219 211 232 222 227 238 194 234 221 225 229 233 199 232 246 247 207 243 257 230 230 223 230 226 204 241 236 234 229 224 225 256 219 224 236 230 228 261 220 220 218 201 213 223 218 234 222 216 220 222 231 220 231 230 181 198 209 230 217 204 199 190 202 225 219 219 205 183 177 206 183 195 208 193 200 197 180 186 174 160 189 177 168 170 167 182 178 186 172 180 155 180 155 156 175 158 158 150 165 171 149 148 152 181 140 159 158 157 195 174 146 178 141 153 138 148 145 146 143 149 161 154 142 134 159 133 132 137 145 133 142 139 136 126 113 136 133 129 131 141 130 118 147 164 137 122 115 123 122 107 117 131 112 114 134 126 150 153 135 141 146 137 139 127 137 133 121 142 146 138 125 115 121 137 130 123 122 122 128 127 136 110</intensities>
			</dataPoints>
		</scan>
	</xrdMeasurement>
</xrdMeasurements>
