<?xml version="1.0" encoding="UTF-8"?>
<xrdMeasurements xmlns="http://www.xrdml.com/XRDMeasurement/1.7" xmlns:xsi="http://www.w3.org/2001/XMLSchema-instance" xsi:schemaLocation="http://www.xrdml.com/XRDMeasurement/1.7 http://www.xrdml.com/XRDMeasurement/1.7/XRDMeasurement.xsd" status="Completed">
	<comment>
		<entry>Configuration=Conf. Reflection-transmission spinner, Owner=User-1, Creation date=2/28/2018 8:43:02 AM</entry>
		<entry>Goniometer=Theta/Theta; Minimum step size 2Theta:0.0001; Minimum step size Omega:0.0001</entry>
		<entry>Sample stage=Reflection-transmission spinner; Minimum step size Phi:0.1</entry>
		<entry>Diffractometer system=EMPYREAN</entry>
		<entry>Measurement program=C:\PANalytical\Data Collector\Programs\sample-1.xrdmp, Identifier={BB6687EE-8248-4E06-B0C7-67735DEB5D7E}</entry>
		<entry>Batch program=C:\PANalytical\Data Collector\Programs\P3.xrdmp, Identifier={110013A4-273B-4C82-A4D1-871885B7687B}</entry>
	</comment>
	<sample type="To be analyzed">
		<id></id>
		<name></name>
		<preparedBy></preparedBy>
	</sample>
	<xrdMeasurement measurementType="Scan" status="Completed" sampleMode="Reflection">
		<comment>
			<entry>PHD Lower Level = 4.02 (keV), PHD Upper Level = 11.27 (keV)</entry>
		</comment>
		<usedWavelength intended="K-Alpha 1">
			<kAlpha1 unit="Angstrom">1.5405980</kAlpha1>
			<kAlpha2 unit="Angstrom">1.5444260</kAlpha2>
			<kBeta unit="Angstrom">1.3922500</kBeta>
			<ratioKAlpha2KAlpha1>0.5000</ratioKAlpha2KAlpha1>
		</usedWavelength>
		<incidentBeamPath>
			<radius unit="mm">240.00</radius>
			<xRayTube id="1010048" name="Empyrean Cu LFF HR (9430 033 7310x) DK427586">
				<tension unit="kV">40.0</tension>
				<current unit="mA">40.0</current>
				<anodeMaterial>Cu</anodeMaterial>
				<focus type="Line">
					<length unit="mm">12.0</length>
					<width unit="mm">0.4</width>
					<takeOffAngle unit="deg">4.4</takeOffAngle>
				</focus>
			</xRayTube>
			<xRayMirror id="27020009" name="Bragg-Brentano HD" hybrid="false">
				<crystal type="Graded" shape="Flat">BB/HD</crystal>
				<acceptanceAngle unit="deg">0.800</acceptanceAngle>
				<length unit="mm">55.3</length>
			</xRayMirror>
			<sollerSlit id="21010002" name="Soller slits 0.04 rad.">
				<opening unit="rad">0.0400</opening>
			</sollerSlit>
			<mask id="22030009" name="Fixed mask 10 mm">
				<width unit="mm">10.00</width>
			</mask>
			<antiScatterSlit id="22010003" name="Fixed slit 1°" xsi:type="fixedAntiScatterSlitType">
				<height unit="mm">1.52</height>
			</antiScatterSlit>
			<divergenceSlit id="22010005" name="Fixed slit 1/4°" xsi:type="fixedDivergenceSlitType">
				<distanceToSample unit="mm">140.00</distanceToSample>
				<height unit="mm">0.38</height>
			</divergenceSlit>
		</incidentBeamPath>
		<diffractedBeamPath>
			<radius unit="mm">240.00</radius>
			<antiScatterSlit id="22090010" name="AS slit 8.0 mm (PIXcel)" xsi:type="fixedAntiScatterSlitType">
				<height unit="mm">8.00</height>
			</antiScatterSlit>
			<sollerSlit id="21020003" name="Large Soller slits 0.04 rad.">
				<opening unit="rad">0.0400</opening>
			</sollerSlit>
			<detector id="7010019" name="PIXcel1D-Medipix3 detector" xsi:type="rtmsDetectorType">
				<phd unit="%">
					<lowerLevel>25.0</lowerLevel>
					<upperLevel>70.0</upperLevel>
				</phd>
				<mode>Scanning</mode>
				<activeLength unit="deg">3.3482</activeLength>
			</detector>
		</diffractedBeamPath>
		<scan appendNumber="0" mode="Continuous" scanAxis="Gonio" status="Completed">
			<header>
				<startTimeStamp>2025-12-28T17:35:00+08:00</startTimeStamp>
				<endTimeStamp>2025-12-28T17:46:32+08:00</endTimeStamp>
				<author>
					<name>User</name>
				</author>
				<source>
					<applicationSoftware version="5.5a">Data Collector</applicationSoftware>
					<instrumentControlSoftware version="7.9j 20171025">EMPYREAN</instrumentControlSoftware>
					<instrumentID>0000000011214615</instrumentID>
				</source>
			</header>
			<dataPoints>
				<positions axis="2Theta" unit="deg">
					<startPosition>6.00558257</startPosition>
					<endPosition>75.99655438</endPosition>
				</positions>
				<positions axis="Omega" unit="deg">
					<startPosition>3.00279129</startPosition>
					<endPosition>37.99827719</endPosition>
				</positions>
				<positions axis="Phi" unit="deg">
					<commonPosition>0.0</commonPosition>
				</positions>
				<commonCountingTime unit="seconds">13.770</commonCountingTime>
				<intensities unit="counts">465 468 439 457 455 459 493 431 471 395 485 440 465 416 446 444 459 477 428 452 456 445 466 451 451 431 427 421 474 462 478 444 456 385 447 420 430 442 450 446 448 464 458 466 442 474 436 451 458 443 460 447 424 476 454 441 475 478 468 466 449 446 423 463 443 472 440 452 469 434 460 429 442 420 427 447 458 412 474 414 457 440 411 432 449 454 436 451 446 458 454 448 417 468 456 427 443 453 402 457 468 447 442 443 414 403 427 431 404 439 461 446 431 431 416 416 423 429 413 386 407 475 454 450 426 434 454 485 437 425 450 501 452 457 450 442 446 440 444 414 462 460 431 431 418 431 463 453 437 424 442 393 416 414 424 447 427 452 441 416 426 464 455 438 414 411 415 430 418 427 432 399 444 434 409 446 416 401 444 428 452 418 449 450 418 434 461 458 419 427 392 442 433 441 437 459 424 452 405 439 446 409 436 449 421 419 428 389 416 427 415 404 436 409 461 418 395 406 414 432 443 455 422 395 400 445 447 408 411 412 447 371 450 439 416 409 419 411 413 444 414 415 433 401 431 429 420 435 439 426 414 394 428 447 430 405 436 467 421 430 421 417 367 417 409 425 420 424 423 420 394 429 410 396 436 386 406 374 425 411 383 398 392 416 434 419 400 396 425 389 379 415 450 457 432 412 438 421 432 415 427 411 404 443 423 439 423 399 401 422 411 397 458 404 439 403 410 452 392 405 408 447 415 408 401 372 405 414 445 412 400 416 414 402 408 411 442 394 427 374 445 415 387 443 420 386 436 434 425 419 404 426 402 415 423 387 401 423 410 431 431 397 404 386 394 415 407 408 383 423 437 367 432 434 439 428 363 403 391 405 427 433 409 404 420 399 410 421 414 403 399 423 392 394 390 410 410 366 417 431 386 403 370 423 400 417 407 359 396 406 367 427 387 395 403 340 385 402 439 408 413 383 383 390 441 380 408 348 375 437 418 408 394 416 361 419 396 379 389 405 415 378 399 392 429 350 395 385 373 381 367 369 427 391 383 384 359 377 397 380 419 384 425 399 368 416 410 394 432 356 436 362 394 381 399 388 397 409 369 429 379 390 388 352 417 384 382 410 398 390 404 425 372 398 415 378 407 372 388 384 388 385 372 373 400 389 368 375 408 355 336 335 392 380 356 390 386 377 421 395 397 393 336 389 363 405 400 366 382 374 380 428 378 411 414 385 421 377 388 383 366 390 366 409 363 366 405 354 387 366 365 352 413 335 353 403 368 354 397 346 361 389 379 388 378 384 388 413 366 361 372 384 353 362 365 333 369 341 369 405 382 362 380 372 401 386 385 370 369 366 351 372 348 350 386 371 353 362 389 385 354 348 414 386 419 333 332 362 405 387 362 376 387 364 382 349 378 345 372 358 334 374 351 347 360 319 372 377 334 358 351 334 395 363 393 356 375 367 353 368 367 351 380 391 357 326 365 374 345 376 336 347 361 369 368 345 382 344 358 375 374 360 354 361 352 353 334 349 362 353 378 328 367 385 358 388 364 386 356 347 351 328 351 371 333 347 352 390 366 384 377 364 361 340 356 358 388 372 364 352 351 356 348 316 337 397 360 353 376 366 335 394 376 325 375 388 381 349 359 293 332 388 349 363 342 376 340 365 358 341 365 346 378 354 347 365 334 380 326 333 333 346 359 358 357 350 356 326 314 324 318 341 332 354 373 338 349 370 357 353 385 344 322 355 325 376 337 341 328 352 332 306 355 345 338 348 335 337 338 339 343 300 341 363 352 326 343 331 337 371 360 336 396 323 320 344 334 310 337 326 348 333 332 306 320 341 359 333 346 351 345 343 330 356 373 319 360 308 335 326 346 356 335 350 390 385 327 321 346 342 328 315 351 324 309 362 348 295 335 341 389 336 322 339 333 353 341 360 319 303 335 309 343 319 329 348 332 362 328 308 330 310 332 339 354 303 344 348 375 309 303 335 335 347 363 319 313 372 315 309 348 353 351 337 345 326 332 314 335 331 327 310 361 343 329 302 314 343 366 322 337 318 291 331 338 332 312 352 323 330 321 361 340 277 364 304 328 312 306 337 305 321 339 326 311 294 321 345 322 319 321 337 319 306 338 323 331 358 286 317 339 323 330 318 315 315 344 332 318 296 340 343 308 308 306 318 379 322 350 327 321 301 308 330 304 306 320 320 308 333 319 327 311 312 324 310 314 323 327 319 325 323 293 344 338 326 288 338 320 323 312 315 327 308 298 304 303 330 329 296 326 281 316 302 294 306 282 331 313 321 339 352 337 313 289 331 325 341 269 309 310 315 304 305 324 314 329 296 305 315 308 293 325 314 304 325 310 340 332 326 294 318 321 313 332 305 314 292 283 290 301 319 303 282 299 291 327 337 318 297 320 302 307 290 289 307 319 328 349 294 294 323 335 287 319 283 303 316 298 312 296 318 298 314 303 355 308 313 332 274 310 306 286 293 287 316 302 338 278 331 303 309 296 351 315 310 322 287 303 316 300 319 325 313 275 295 271 286 285 294 296 341 312 288 291 251 279 304 299 272 293 282 288 267 321 328 302 294 280 245 284 290 281 293 317 287 287 307 317 293 248 348 318 305 310 289 306 273 298 318 290 292 275 298 295 291 332 238 282 312 274 303 320 293 308 299 292 275 276 302 280 303 339 318 273 300 325 304 300 297 295 304 296 259 315 271 274 314 286 283 294 282 270 287 302 256 266 310 312 306 293 275 301 307 239 276 291 276 286 302 299 272 271 280 291 270 263 299 267 279 280 276 293 305 250 298 299 285 257 287 280 259 265 279 273 264 273 239 278 317 257 279 282 269 279 266 265 270 289 285 282 305 301 291 280 293 275 292 272 256 281 273 283 303 286 246 284 291 249 278 276 284 285 277 283 282 302 298 267 276 283 292 284 275 264 278 251 264 274 289 279 307 294 272 284 283 289 277 292 264 276 289 293 289 308 295 275 305 281 290 263 287 296 267 258 258 268 257 291 293 281 289 271 249 281 237 272 261 274 276 273 294 291 267 267 274 259 239 304 266 270 265 263 230 277 276 261 275 304 258 257 263 257 288 276 266 273 284 243 265 295 234 246 294 307 257 235 275 260 279 281 246 274 231 230 237 274 249 292 295 295 261 260 285 225 276 249 280 234 256 268 249 282 237 261 263 244 272 270 245 223 242 232 246 270 238 283 262 231 269 268 236 284 265 228 250 249 265 257 236 275 259 271 248 231 268 287 281 264 256 273 262 268 268 291 271 272 285 264 290 321 264 283 257 273 283 283 267 260 250 289 263 232 295 259 250 266 249 235 279 275 270 296 243 269 240 263 287 264 262 260 279 276 276 247 244 246 272 250 269 273 244 278 285 262 273 268 259 267 274 266 283 303 280 274 260 264 272 294 269 272 287 271 302 246 295 305 307 304 296 305 294 298 301 324 344 327 342 332 336 359 343 348 380 374 352 346 367 404 367 396 400 409 384 427 442 434 441 504 528 499 557 526 539 580 579 609 615 654 687 760 738 749 802 805 850 910 948 997 1010 1076 1086 1181 1269 1284 1403 1453 1431 1541 1585 1780 1709 1797 1776 1846 1806 1886 1845 1806 1778 1626 1514 1516 1406 1278 1193 1055 1018 954 879 724 739 622 592 555 506 474 416 470 490 412 386 407 360 370 361 346 359 370 355 360 363 335 311 340 282 303 323 298 334 312 319 285 305 285 280 307 303 280 322 298 279 273 286 269 269 278 263 283 271 257 269 270 297 270 235 271 261 267 272 267 292 288 268 270 213 286 246 272 260 257 277 286 225 285 284 290 257 238 295 232 235 272 285 263 246 246 267 227 243 244 223 236 220 248 246 269 270 261 266 225 269 257 247 214 242 259 269 243 225 275 237 224 230 264 256 227 234 261 245 265 237 246 260 266 242 241 236 274 235 238 275 278 227 245 241 246 206 229 235 223 216 258 226 263 231 239 243 220 223 258 205 234 237 255 257 232 228 205 238 241 205 226 229 225 231 249 237 231 229 267 232 258 256 238 287 239 227 219 231 262 230 245 229 278 236 248 234 261 205 245 228 227 244 236 256 241 235 277 245 219 240 238 234 224 218 264 221 228 246 235 225 235 256 263 264 228 224 231 231 240 230 240 263 242 236 218 251 222 191 260 244 237 249 241 239 259 232 257 235 218 221 242 205 246 213 213 241 218 214 239 231 200 229 224 258 229 238 246 208 230 231 200 256 230 210 249 228 226 245 229 205 241 231 248 222 229 237 240 262 206 218 263 238 260 240 206 232 238 239 251 237 241 228 224 236 242 259 242 221 221 249 207 265 230 263 262 225 204 219 207 215 221 242 235 257 267 257 212 231 237 231 237 217 247 207 211 228 246 244 225 223 215 231 260 246 219 207 262 239 260 213 241 219 218 221 239 258 225 223 230 213 215 236 204 230 244 217 238 282 201 218 223 223 239 227 229 226 227 266 226 222 221 233 227 210 232 228 217 233 220 261 248 192 250 234 224 207 239 227 211 256 218 240 245 244 227 225 237 217 219 215 223 241 231 223 200 218 214 228 195 227 234 215 214 231 236 222 210 237 215 261 228 226 247 218 223 260 217 231 242 221 228 198 213 242 212 210 248 218 239 229 215 205 242 200 190 264 201 224 189 218 242 264 200 227 196 229 207 227 249 238 228 223 209 212 220 219 213 218 228 237 214 238 195 237 225 226 222 264 230 219 205 235 214 236 205 211 222 230 213 221 211 239 238 238 234 210 192 209 232 247 216 232 220 227 201 235 243 224 212 240 239 226 219 229 212 195 213 227 247 203 228 228 213 177 216 232 267 211 228 240 205 214 212 211 205 235 220 195 237 229 228 233 240 214 220 219 208 197 229 257 228 215 210 231 218 219 219 233 207 214 237 197 205 214 239 204 214 244 222 266 235 198 240 222 236 237 218 223 217 234 189 265 211 225 221 231 231 214 214 200 196 203 216 250 265 224 213 196 230 243 217 228 227 219 206 223 246 214 225 232 241 231 228 203 223 229 206 224 215 210 211 201 219 219 226 223 221 224 234 234 224 214 203 208 220 228 220 227 226 221 239 221 210 205 227 235 232 221 219 230 225 195 227 217 192 205 218 225 228 191 227 224 238 206 203 224 210 197 194 204 230 209 210 218 215 213 231 209 206 223 193 220 207 250 220 213 190 214 202 197 203 192 242 195 206 190 183 218 203 215 194 232 198 171 211 207 246 217 242 188 204 200 178 215 210 184 194 206 207 196 224 200 204 215 216 217 225 230 209 220 217 195 212 193 201 217 198 186 203 221 224 198 209 205 188 221 204 209 222 201 206 187 212 233 210 181 196 204 223 200 215 217 202 239 213 219 184 200 195 222 218 192 221 215 202 200 221 193 217 209 211 178 228 203 208 210 198 187 216 211 176 228 202 237 189 202 220 190 175 214 188 199 209 212 213 188 212 208 194 210 188 194 189 192 207 206 197 186 229 202 216 206 212 195 203 207 190 207 213 190 191 182 193 184 195 202 179 195 199 213 194 196 172 196 169 171 177 181 176 181 202 187 210 241 226 188 205 197 200 206 191 198 220 214 191 193 212 204 190 199 205 206 188 208 192 177 196 189 200 200 200 207 186 193 208 198 193 212 188 202 207 187 182 200 170 206 187 178 173 185 168 180 184 185 194 194 175 174 173 195 203 184 181 194 177 211 196 190 177 184 192 185 181 178 190 195 191 175 173 187 186 197 173 199 194 198 212 193 176 188 213 185 204 206 201 200 209 172 177 201 215 192 205 213 195 192 201 181 172 179 223 185 195 196 190 186 155 177 202 193 194 205 184 193 181 190 197 163 188 165 192 185 186 200 185 201 173 183 181 181 175 179 186 214 189 210 194 193 211 190 191 176 193 180 212 222 167 187 199 216 201 171 204 169 184 158 200 200 207 188 200 222 175 185 187 175 188 182 189 187 192 204 187 196 198 212 168 197 196 176 177 204 201 194 194 216 190 210 220 223 211 175 220 207 199 203 208 193 206 195 212 199 233 204 196 218 208 211 173 189 208 176 189 193 192 196 214 189 222 224 212 197 206 192 215 198 178 181 177 184 181 205 173 186 179 177 176 179 195 201 169 199 197 173 182 182 215 174 176 180 174 183 188 179 195 193 177 169 172 173 169 188 180 190 177 143 204 169 188 187 183 203 180 179 194 176 209 167 185 184 174 174 164 184 173 184 178 187 169 186 180 174 200 197 163 172 161 184 192 204 173 187 182 185 180 200 146 192 180 168 175 171 170 182 196 150 176 163 182 193 176 181 189 205 195 174 183 163 176 171 192 206 196 177 188 198 177 145 181 169 162 185 174 192 182 185 176 181 177 183 207 180 171 171 171 185 188 173 175 175 179 190 189 187 183 178 171 159 187 172 198 184 177 158 160 162 170 194 201 160 166 179 180 179 182 186 194 162 177 185 178 184 174 164 172 180 198 180 196 189 196 170 206 168 209 197 182 195 184 179 195 195 174 168 178 184 179 157 214 185 192 180 161 168 183 191 175 196 216 188 186 200 195 224 202 180 168 185 169 206 206 181 222 168 210 207 209 192 188 192 196 217 229 215 205 205 192 217 214 228 204 232 230 221 196 218 230 234 236 249 217 275 263 268 278 274 276 250 271 325 314 293 334 309 363 354 363 405 420 426 451 497 527 534 532 623 639 675 755 764 773 865 930 958 1005 1100 1072 1071 1094 1153 1161 1197 1198 1128 1161 1161 1113 1151 1107 996 1012 986 978 893 872 824 735 732 674 675 620 608 539 545 516 516 495 486 437 423 435 413 454 447 397 407 473 428 435 471 480 450 503 478 507 595 554 560 571 593 663 699 699 685 759 757 806 865 910 918 997 1028 1070 1099 1193 1187 1249 1322 1378 1439 1424 1559 1624 1577 1627 1621 1685 1631 1658 1622 1618 1621 1625 1644 1644 1681 1659 1710 1664 1712 1747 1811 1884 1881 1760 1865 1955 1957 1967 2092 2060 2079 2026 2086 2050 1997 1933 2014 1812 1815 1754 1716 1584 1483 1448 1416 1291 1265 1157 1075 1027 964 903 819 755 773 752 640 656 629 546 542 493 495 472 523 444 405 451 412 410 372 362 349 366 340 320 357 338 337 347 268 291 280 246 300 294 233 286 261 283 238 228 274 224 280 215 225 220 244 235 244 224 229 235 203 215 221 205 203 206 221 220 198 197 230 224 246 211 195 178 223 201 223 194 209 194 207 187 180 180 203 197 180 181 185 179 171 185 201 192 157 202 175 185 183 188 190 176 174 182 186 178 187 187 190 166 173 164 191 183 160 158 183 176 164 165 160 159 191 183 171 185 171 189 175 177 180 158 177 188 169 169 183 170 172 182 135 178 196 157 162 174 167 169 179 162 154 171 178 158 162 182 164 157 166 182 170 172 156 172 152 165 176 164 162 160 168 154 163 141 181 178 182 152 171 166 174 159 189 156 156 150 161 171 182 167 164 168 148 159 171 169 168 165 177 174 166 178 185 167 154 150 152 165 169 182 147 144 161 185 155 171 157 188 162 161 164 173 155 158 159 159 156 148 172 150 157 161 183 162 154 156 152 155 188 162 157 139 162 135 148 157 145 148 169 157 152 164 175 161 160 161 138 164 143 168 174 163 148 176 172 171 170 180 143 160 163 175 141 174 152 136 160 164 165 167 158 131 148 152 174 152 165 201 143 151 150 154 151 161 156 152 142 150 146 155 139 155 154 142 174 186 155 133 153 127 175 153 156 157 138 192 155 164 149 151 140 169 113 150 164 138 140 167 152 151 150 170 204 154 160 131 147 164 131 159 144 160 148 154 155 151 155 165 180 133 156 126 146 150 158 177 165 152 142 172 163 150 150 157 139 149 137 142 148 163 150 147 155 154 177 164 148 146 151 172 156 126 154 141 177 144 152 167 159 152 160 173 151 151 168 172 152 162 143 153 169 157 174 181 150 133 156 156 138 180 139 152 157 149 146 170 143 141 157 157 148 146 138 177 141 159 136 132 133 149 151 153 152 147 146 151 120 146 173 159 147 155 151 154 144 159 130 142 145 134 138 154 157 156 132 135 176 146 147 149 161 130 157 173 179 144 174 151 168 143 129 143 124 154 149 139 158 136 154 153 122 158 145 155 182 146 154 134 160 138 143 150 157 140 172 142 143 151 135 156 146 143 148 147 137 141 144 138 132 160 154 140 141 140 182 139 138 157 123 137 130 160 153 149 128 132 164 134 146 129 161 129 133 146 139 158 159 147 151 161 133 147 148 153 139 144 137 153 159 131 138 153 142 139 174 144 156 164 131 130 147 164 148 158 141 140 148 157 125 182 138 159 149 145 139 135 135 151 145 138 180 141 148 125 160 143 144 159 153 152 150 149 142 140 153 148 132 136 150 146 138 153 131 147 146 139 137 156 171 168 156 157 151 167 161 143 148 141 135 150 145 143 144 171 169 140 150 132 151 145 159 136 130 145 162 141 152 153 136 143 154 156 142 141 134 147 178 173 156 173 144 144 151 174 162 173 144 140 157 170 179 160 209 163 171 169 147 173 158 194 161 177 172 186 190 194 233 205 207 235 208 217 233 251 272 235 276 288 289 325 333 299 327 396 388 370 384 431 425 465 505 507 514 500 537 532 600 541 535 504 558 510 516 492 495 441 461 422 430 406 398 394 349 354 347 366 308 319 290 273 276 257 236 262 247 216 211 212 189 192 212 188 158 209 180 243 162 188 223 194 185 175 180 188 189 172 168 184 163 175 172 150 183 164 149 174 183 159 200 166 192 194 176 174 158 175 175 173 183 160 150 197 170 179 170 193 193 179 178 156 190 182 179 166 144 149 185 174 169 149 163 177 160 178 163 180 168 154 193 175 156 170 166 151 179 171 146 158 170 139 169 193 168 154 168 160 160 153 145 139 142 148 155 164 159 151 145 148 129 149 143 135 132 147 156 134 135 156 144 144 131 144 164 139 163 142 146 155 141 154 163 169 130 137 139 132 137 162 168 147 154 160 146 152 149 149 174 129 159 140 170 170 143 142 159 142 136 170 146 149 159 143 144 147 145 149 135 137 138 148 179 150 141 164 146 133 149 128 143 170 149 109 146 143 152 177 144 144 148 140 160 153 151 148 145 152 146 139 148 179 143 139 152 148 156 154 144 153 159 140 146 170 154 138 168 144 134 139 178 170 135 165 146 130 161 131 143 160 160 158 156 173 166 159 155 151 160 175 163 145 137 161 166 170 173 145 145 177 151 168 167 163 165 172 154 179 153 153 183 161 175 175 204 173 170 193 212 180 193 174 188 199 204 200 226 202 222 233 231 226 212 247 238 262 280 271 293 235 324 328 341 330 365 329 389 381 358 423 447 453 462 490 513 527 569 583 623 678 662 715 757 790 855 791 868 852 907 931 885 954 966 930 957 891 956 960 904 885 898 925 889 757 755 768 713 700 642 634 611 581 567 472 538 445 430 416 419 400 372 340 351 348 299 309 235 268 261 243 287 258 216 188 233 216 179 206 169 225 180 204 187 177 207 178 181 187 201 150 178 186 160 148 188 190 180 138 162 160 154 159 171 164 163 174 137 161 151 162 160 156 152 177 150 158 161 165 151 152 145 180 131 167 166 156 170 151 142 157 144 153 135 141 144 154 164 140 128 155 137 163 150 142 172 172 144 179 136 145 151 138 143 150 130 150 132 155 163 142 156 154 138 138 152 153 186 159 161 143 158 144 148 153 134 153 142 145 138 124 146 151 149 133 146 152 170 128 155 159 149 146 177 152 148 141 153 152 151 184 148 155 159 178 150 164 141 160 178 171 134 141 136 148 166 164 143 140 146 160 161 142 185 152 163 144 151 153 146 168 185 148 152 146 152 156 173 160 157 170 164 161 193 144 188 186 160 158 178 152 197 162 162 180 184 187 182 182 183 186 187 209 179 220 200 198 236 205 210 214 212 221 220 203 205 185 216 221 237 245 236 285 261 267 285 308 312 301 316 337 343 371 369 363 434 441 440 482 510 581 577 581 643 702 710 788 817 876 946 1045 1036 1156 1181 1305 1345 1427 1431 1551 1571 1678 1690 1741 1813 1771 1725 1898 1849 1791 1947 1883 1987 1937 2003 1901 1928 1910 1834 1801 1824 1761 1752 1700 1724 1634 1531 1500 1484 1436 1342 1327 1229 1186 1202 1099 1039 950 876 928 851 855 779 710 664 668 616 563 578 551 522 483 471 426 474 404 340 372 338 364 365 342 354 325 292 282 295 275 273 242 279 246 244 243 245 217 245 232 263 256 248 243 241 226 237 238 247 214 232 218 224 220 221 218 168 225 249 200 230 205 210 206 199 207 225 206 186 199 197 208 168 176 177 180 191 211 174 187 207 186 196 191 198 182 172 178 187 168 176 184 152 168 154 181 158 184 168 172 147 157 153 177 172 163 169 190 185 166 148 165 145 187 146 150 146 159 171 163 163 157 145 154 152 145 157 115 169 146 122 144 141 153 136 133 164 151 139 161 129 155 145 130 130 151 143 131 130 154 138 143 146 152 134 152 163 154 147 161 137 161 148 136 148 144 156 155 156 141 143 147 126 148 124 154 151 118 140 141 129 142 143 123 164 170 154 131 143 113 159 157 124 175 143 138 144 147 148 153 152 146 174 145 155 147 147 147 168 142 139 189 148 134 167 165 153 159 151 148 145 166 164 164 159 153 160 155 176 182 195 181 178 209 187 197 194 199 198 202 224 211 226 205 217 246 232 217 234 257 310 322 262 295 307 294 315 326 325 360 370 339 360 365 408 352 362 348 372 380 378 368 351 310 306 329 333 335 290 293 296 259 282 307 261 290 237 245 249 228 239 234 214 178 218 189 217 203 201 188 189 166 175 176 168 179 177 172 174 182 181 191 193 201 188 184 179 172 180 176 197 171 186 202 192 192 190 213 185 204 203 209 208 197 204 200 198 236 189 239 230 267 271 281 300 285 295 295 327 387 375 409 491 456 514 522 550 658 601 683 706 723 730 711 770 788 745 699 704 707 690 727 668 674 638 656 612 599 566 599 589 542 518 472 453 420 377 371 354 364 339 297 307 283 271 240 231 229 231 212 197 188 213 211 186 186 177 161 170 149 175 162 190 174 170 161 179 160 168 165 176 150 146 155 135 159 176 134 167 124 136 116 146 141 147 143 130 151 138 157 157 149 161 130 133 156 145 150 149 130 140 127 136 137 125 149 117 152 117 158 119 139 149 150 148 145 147 139 132 140 120 135 149 122 135 103 135 135 133 143 168 121 116 128 161 139 140 162 114 143 122 132 134 134 122 112 138 161 144 153 132 147 137 113 127 157 135 156 141 140 136 147 145 152 130 137 133 138 143 144 128 146 127 146 147 152 157 152 133 152 137 152 138 152 167 154 159 169 135 160 174 191 180 159 191 185 189 197 200 175 191 188 223 244 216 211 200 197 190 216 260 234 284 282 243 279 274 314 292 312 336 314 353 363 348 356 407 388 382 430 422 403 436 445 458 444 446 441 456 480 494 503 454 451 454 451 440 438 441 401 421 399 404 415 357 391 353 367 333 323 318 297 309 306 293 280 290 241 242 280 198 209 206 198 228 215 205 188 186 201 198 168 189 188 178 166 158 167 159 154 117 152 141 147 149 158 159 150 153 142 148 142 154 126 173 152 152 163 155 147 125 136 137 127 124 132 150 134 136 130 138 134 112 127 153 140 143 128 140 131 125 112 147 124 151 127 132 120 131 142 150 138 135 131 134 129 131 131 136 119 110 122 109 143 123 126 113 127 132 140 122 118 131 129 104 143 111 136 145 113 130 115 123 120 113 124 132 136 141 111 142 157 120 137 120 128 105 154 119 146 128 122 131 137 115 133 116 132 128 122 142 149 139 148 130 134 140 137 149 136 145 149 133 139 157 156 129 144 161 165 161 132 125 152 160 173 141 170 127 163 140 186 162 155 157 156 164 174 168 176 172 173 191 178 181 193 182 208 212 228 212 235 220 260 221 260 273 275 261 298 334 340 331 361 342 366 408 400 465 470 505 501 565 545 625 653 694 781 684 799 806 807 908 902 982 1061 1028 1058 1078 1066 1054 1074 1109 1115 1070 1096 1089 1151 1101 1076 1013 1044 978 1019 929 862 914 896 833 837 795 743 728 705 695 653 632 591 550 473 490 461 454 383 386 384 395 385 300 317 312 324 284 238 272 243 208 240 244 238 244 215 220 215 181 211 204 213 195 213 173 177 184 196 199 156 159 174 182 174 150 186 165 179 151 156 154 162 146 148 156 138 136 146 174 126 154 134 154 174 153 135 148 143 141 161 141 152 130 170 129 145 133 139 135 149 127 145 159 134 140 157 150 146 131 155 140 164 122 151 163 160 151 143 154 146 128 154 125 138 138 155 136 127 137 135 130 132 145 136 118 140 149 122 147 155 145 100 137 119 128 131 138 122 119 131 118 129 120 142 117 129 124 146 162 119 126 126 134 138 128 128 134 144 138 135 141 115 122 135 134 126 148 128 146 146 130 127 151 111 147 133 138 129 137 143 122 127 139 153 130 140 143 143 155 132 132 137 143 141 154 148 135 155 164 149 161 152 155 153 161 182 171 156 177 174 197 167 166 195 176 190 203 187 209 184 214 229 215 213 279 257 268 276 280 285 294 289 311 302 308 334 306 350 324 360 426 430 438 438 459 475 471 524 460 514 493 530 528 516 509 543 550 533 553 465 507 563 495 493 492 472 471 483 457 456 465 424 427 453 425 400 373 423 372 329 364 350 361 359 323 322 312 284 277 294 277 262 277 276 278 274 265 258 239 265 245 235 243 246 217 250 244 241 228 241 244 261 235 231 243 254 276 235 262 264 271 271 319 249 289 300 315 306 333 349 345 386 375 428 463 457 545 544 582 680 693 650 769 870 905 977 1032 1102 1151 1159 1223 1294 1349 1371 1405 1458 1433 1491 1532 1475 1492 1406 1433 1507 1445 1385 1319 1346 1281 1258 1273 1240 1174 1176 1092 1121 1044 944 937 847 803 750 738 690 713 626 601 528 539 517 460 441 422 393 370 365 355 340 316 284 287 296 238 244 265 273 242 237 238 216 249 213 208 183 182 188 172 162 171 176 174 180 147 165 163 157 159 151 185 158 164 165 173 155 160 149 143 156 161 150 152 127 151 166 132 149 131 153 158 159 145 129 152 153 163 145 130 138 119 151 138 137 138 128 146 133 123 124 135 141 145 159 137 155 125 123 133 129 128 126 129 116 121 131 139 126 138 114 132 145 135 138 144 143 126 134 118 119 120 141 136 113 130 135 154 113 130 141 112 142 126 132 125 113 142 124 127 117 115 142 138 127 148 132 120 143 110 132 137 142 131 162 163 148 142 145 144 160 141 136 149 158 156 178 140 181 162 174 160 154 139 143 152 159 162 148 165 149 141 141 160 162 170 159 149 153 168 153 135 135 150 146 138 155 129 143 120 139 149 138 128 137 143 131 128 132 145 117 112 132 119 112 125 130 134 135 100 133 108 118 129 130 121 131 122 111 142 128 130 121 133 117 123 114 122 121 126 125 118 112 116 118 119 121 143 114 121 141 125 125 128 121 90 123 113 85 124 135 113 122 140 137 115 127 133 104 112 128 120 126 123 114 123 144 128 125 127 116 138 119 129 120 123 133 138 137 127 134 130 117 128 138 116 130 110 102 116 109 97 132 121 112 122 112 127 109 123 126 111 107 89 106 142 119 121 104 94 94 123 126 111 131 104 119 102 116 113 112 123 118 120 118 121 93 114 138 102 136 112 140 110 139 110 114 106 129 102 134 117 106 119 147 138 130 109 108 128 95 108 127 110 139 124 93 117 109 118 125 117 132 117 126 130 139 115 110 124 145 118 130 138 110 131 109 120 145 127 155 128 136 117 140 159 140 130 130 164 168 134 145 126 148 133 148 148 154 145 132 141 132 142 120 135 153 154 165 127 148 138 123 145 160 127 159 132 137 130 143 124 116 140 121 114 131 115 122 133 111 109 121 130 135 123 121 133 114 131 124 117 103 126 128 117 114 156 118 127 131 116 127 123 132 121 131 120 135 108 120 135 147 122 109 112 116 114 119 135 118 132 132 105 127 134 108 121 125 132 121 99 118 133 110 115 132 116 128 114 95 113 135 126 118 111 109 111 102 108 120 119 114 103 149 117 128 118 126 125 127 134 115 103 144 124 115 123 115 124 112 128 136 141 128 120 118 139 129 110 125 126 113 137 103 122 124 127 101 141 129 119 127 122 109 116 123 133 127 126 134 129 105 118 119 118 122 121 135 149 123 134 134 133 113 128 140 140 138 138 137 158 137 137 125 124 133 143 134 150 156 139 129 132 168 149 149 160 161 174 141 158 141 151 135 148 139 154 124 144 155 145 153 155 130 148 154 145 142 154 159 146 123 131 137 124 140 146 147 147 150 147 149 144 161 135 144 131 146 135 142 152 133 130 140 158 143 153 146 142 122 133 144 168 141 154 172 162 159 154 152 154 163 147 154 183 163 159 170 153 168 164 171 161 163 150 156 172 194 183 203 179 177 186 194 201 174 209 218 182 205 176 222 205 216 212 190 206 200 199 221 201 208 193 222 210 204 196 214 239 198 195 202 179 193 197 198 198 175 192 205 213 176 210 174 162 199 199 175 178 202 179 184 175 179 148 158 180 160 195 179 171 163 185 176 176 178 163 174 162 173 200 146 169 175 178 184 157 175 169 168 160 167 157 149 160 128 157 161 183 144 169 170 153 144 136 169 140 156 156 152 150 144 133 138 135 160 143 150 140 163 144 171 150 149 122 140 144 138 145 136 149 143 134 139 140 148 135 160 131 167 159 147 151 133 141 147 168 193 148 167 159 148 164 145 157 145 173 143 149 158 156 161 172 138 142 149 142 144 158 173 164 151 169 140 162 154 157 177 201 183 175 169 170 166 182 185 197 162 181 159 160 175 167 163 152 187 178 177 181 189 181 188 193 198 174 190 192 196 185 205 230 208 225 224 218 206 240 227 230 231 222 229 205 234 249 248 270 229 247 260 263 262 265 234 279 228 246 229 247 272 275 275 263 243 235 228 232 231 211 235 220 232 246 208 225 220 219 212 212 212 189 196 203 213 185 196 193 191 185 152 165 169 165 158 184 199 160 137 176 167 154 169 132 149 164 151 156 147 136 124 164 133 169 143 143 136 131 129 130 132 136 120 133 116 113 109 142 157 117 130 125 143 128 128 122 130 111 117 119 142 105 115 116 113 140 123 140 121 127 118 110 133 122 109 134 112 112 118 105 98 112 123 131 127 100 112 111 105 125 103 118 118 119 114 106 113 122 122 112 117 117 136 131 132 117 124 119 113 123 114 114 136 114 115 124 114 110 118 109 105 124 110 104 110 134 129 142 112 110 127 123 119 120 123 118 113 121 100 119 114 119 121 118 110 125 102 126 127 121 126 114 113 124 110 119 100 115 109 137 138 103 116 111 138 124 127 115 106 149 131 123 126 133 134 124 109 121 147 140 111 128 106 122 127 133 131 122 126 117 126 138 121 135 138 119 130 123 131 128 139 130 133 120 137 137 133 121 134 115 124 119 113 140 110 130 97 123 111 127 118 125 115 125 122 118 107 110 101 128 122 128 119 99 124 101 107 113 118 126 112 112 145 120 118 135 132 128 113 104 121 121 122 125 112 128 122 103 105 117 111 105 113 124 115 122 140 131 125 115 114 134 133 106 129 117 124 126 114 114 116 109 110 127 124 124 101 113 150 108 120 124 116 113 111 125 117 129 104 133 120 118 99 109 106 114 118 128 100 121 114 127 131 121 123 100 103 103 122 129 107 100 116 120 118 105 95 127 113 116 105 112 114 124 104 114 114 102 101 128 94 111 124 112 125 135 126 115 120 117 106 138 117 115 125 126 109 93 113 127 140 121 121 113 121 120 121 111 143 129 123 112 127 139 107 113 126 120 130 140 121 148 144 124 128 109 118 130 138 149 155 138 128 145 141 128 139 142 134 143 139 134 139 146 139 162 173 180 175 140 175 172 184 161 186 167 197 208 204 195 217 225 209 249 239 286 274 295 309 317 345 344 410 393 406 437 425 483 467 489 518 549 577 582 602 625 622 633 638 585 661 586 631 620 594 642 613 616 637 577 602 578 597 564 540 535 538 564 547 530 479 513 436 441 462 438 431 375 408 344 375 359 328 310 329 309 277 296 262 233 243 222 212 234 205 247 203 213 187 201 186 174 177 163 168 178 158 180 162 140 162 173 156 154 145 151 159 148 158 155 136 153 136 132 127 137 127 124 146 131 130 148 158 134 129 135 121 131 132 126 125 143 133 105 146 147 141 133 129 116 159 111 148 164 134 116 131 141 155 125 147 142 138 131 148 157 135 151 155 130 155 143 156 167 148 156 163 160 180 173 165 179 198 187 149 166 177 166 181 190 166 213 201 217 215 186 211 199 226 180 213 197 221 190 201 219 223 192 206 249 209 238 258 262 247 248 248 256 275 236 278 235 256 245 285 283 237 271 235 298 250 283 242 275 259 298 275 250 279 262 299 313 276 342 297 322 299 307 314 319 326 262 291 302 331 290 319 329 316 337 289 322 316 347 283 302 330 300 300 306 288 308 273 289 320 303 298 304 296 294 275 280 268 244 265 259 284 270 274 241 238 222 241 222 178 239 219 208 234 196 205 202 220 183 179 200 201 197 203 193 166 157 197 160 154 162 141 166 175 153 148 156 157 143 147 148 159 140 126 134 151 155 137 122 152 118 140 122 144 139 142 135 113 139 143 129 132 136 129 139 126 118 109 127 127 118 101 132 116 118 111 135 118 123 115 102 120 137 122 118 123 96 117 128 116 108 105 124 105 118 113 115 116 111 89 114 134 132 129 112 107 120 104 110 119 117 113 121 122 106 113 129 112 147 108 104 112 121 110 132 116 121 115 129 130 108 98 105 100 130 115 137 108 115 112 128 107 108 129 114 106 126 125 107 105 117 112 122 122 128 131 130 129 109 123 115 104 99 127 95 108 133 110 101 109 101 111 105 124 122 108 128 131 112 131 122 103 131 130 112 126 108 109 104 117 127 122 140 111 115 117 115 109 128 123 110 119 106 123 116 117 114 99 108 148 111 108 114 123 96 107 126 120 101 104 123 106 105 120 110 101 118 108 123 114 116 116 108 125 117 130 129 108 112 120 111 91 124 116 120 104 106 125 107 108 124 120 111 120 102 117 111 123 121 116 113 125 103 117 119 91 126 87 117 131 94 103 91 108 102 111 122 120 119 113 122 127 115 119 122 117 104 107 127 115 106 125 94 121 116 110 124 101 108 115 112 112 116 111 113 105 113 109 96 97 113 108 115 94 121 119 118 107 115 106 134 104 112 109 116 116 119 112 115 123 123 119 117 108 112 121 108 123 136 117 115 134 117 131 95 113 118 114 121 118 124 125 113 112 125 102 117 128 114 109 116 109 114 120 103 117 110 118 103 125 139 99 113 101 101 145 124 118 127 130 118 113 105 106 113 114 121 133 124 124 97 116 107 107 117 120 119 97 116 133 130 132 106 122 123 139 143 129 106 130 137 132 135 136 136 128 129 135 128 142 125 150 142 109 123 150 129 134 138 121 132 126 133 136 133 134 142 120 151 141 138 153 155 145 166 145 159 146 153 178 169 147 157 157 188 152 145 154 177 187 171 165 167 167 181 180 214 173 185 192 210 200 201 227 213 208 242 247 258 263 224 264 280 306 299 328 348 328 367 389 395 424 419 448 464 507 566 571 570 651 658 741 756 749 813 829 878 882 918 967 986 1082 999 1096 1079 1105 1103 1136 1195 1124 1128 1164 1157 1155 1149 1199 1168 1129 1155 1132 1121 1123 1092 1079 1075 1049 1016 1038 1035 1013 1003 959 983 908 960 950 869 857 811 878 828 793 767 712 729 726 641 685 682 623 628 582 533 521 540 481 502 481 463 471 409 436 406 412 371 405 371 351 344 363 334 309 320 307 300 315 304 284 308 232 249 260 262 244 264 260 220 209 232 239 205 207 217 177 234 167 203 199 203 195 206 202 235 210 211 191 211 223 204 207 202 213 158 183 199 202 196 192 193 209 185 185 207 182 184 208 185 207 210 191 176 202 206 195 193 202 181 182 173 187 191 181 167 174 165 200 159 192 163 191 160 162 163 162 167 160 162 166 145 169 168 162 176 150 150 145 160 149 159 137 164 150 164 151 157 139 139 148 147 149 138 122 146 140 133 153 152 132 143 146 116 127 125 132 124 133 117 133 125 141 131 118 126 117 131 134 133 130 132 136 133 128 122 137 122 124 112 125 144 131 134 121 118 121 112 121 102 110 115 142 104 134 119 116 153 122 143 121 140 130 130 137 137 132 132 139 117 120 130 125 131 118 138 146 116 131 149 142 136 141 107 122 123 133 147 105 125 119 130 152 110 113 135 143 142 115 130 134 121 120 139 133 111 137 133 119 120 143 128 121 123 136 116 122 144 130 110 137 122 109 138 122 148 135 141 134 146 133 123 115 118 124 127 119 130 140 144 136 141 139 118 145 133 163 118 136 134 138 140 120 146 149 157 168 143 124 149 138 143 163 129 179 143 150 144 155 162 137 132 150 134 167 166 171 138 139 166 146 164 164 140 145 143 153 162 145 170 142 141 161 160 148 137 141 165 141 148 124 134 120 142 142 164 122 133 130 138 120 143 147 121 131 130 154 124 120 133 132 144 135 143 145 130 120 157 135 137 152 147 168 158 146 142 145 133 143 150 135 133 137 131 186 165 135 162 165 140 144 147 144 176 162 170 168 170 157 160 185 169 185 169 189 170 220 196 208 189 190 222 195 224 228 212 221 236 241 250 258 232 226 274 279 312 318 312 311 324 371 339 343 352 367 384 368 398 386 442 449 448 445 463 492 489 509 538 524 491 527 598 593 625 555 563 584 602 583 611 558 622 575 592 554 606 612 566 542 600 575 572 562 563 535 563 572 500 526 525 538 486 490 491 468 448 446 426 410 385 458 384 367 404 399 382 385 387 354 356 375 311 346 330 328 326 309 331 294 243 268 276 260 296 274 271 250 227 257 268 260 290 204 260 234 241 223 233 206 265 205 237 216 256 233 248 243 264 238 228 247 237 236 263 277 248 227 224 244 250 212 228 219 221 228 213 204 213 198 186 225 205 197 212 210 195 192 180 185 229 226 183 208 204 178 179 176 178 184 182 176 189 161 169 187 161 162 172 144 159 146 174 165 168 151 155 147 131 138 160 145 151 151 155 147 143 127 147 148 140 122 154 127 124 131 127 128 131 121 144 118 120 127 150 125 129 120 137 157 123 126 117 136 136 127 124 141 113 114 118 134 114 120 118 104 130 123 131 114 120 114 112 108 114 106 118 125 127 106 131 141 121 112 119 99 110 104 108 109 115 109 115 128 109 115 111 113 101 96 112 118 96 116 122 124 103 110 111 103 108 147 123 125 138 135 117 97 124 100 129 96 104 108 116 95 112 129 109 110 130 125 112 126 88 119 101 123 120 137 111 129 115 120 133 131 108 124 119 119 127 133 121 133 108 113 94 125 129 120 115 128 111 120 116 110 138 127 126 122 135 121 123 135 97 106 106 114 124 101 112 135 104 132 115 114 117 133 121 101 109 134 101 114 142 128 139 112 135 101 123 88 136 121 128 122 133 103 101 136 136 127 107 130 114 117 111 131 128 121 151 118 127 141 124 128 133 121 105 133 109 131 134 172 107 140 142 124 140 138 145 122 156 149 122 160 120 151 141 138 169 150 146 171 151 156 152 161 171 170 171 156 168 140 161 156 163 159 136 149 154 159 153 180 182 158 166 191 145 185 188 188 173 176 190 187 189 180 188 192 177 189 181 230 187 181 184 205 208 202 203 205 221 192 211 226 221 228 239 248 216 208 204 199 220 209 201 210 186 235 256 204 195 226 203 223 233 230 214 221 216 206 208 192 187 201 204 179 180 204 190 172 153 203 190 174 206 182 178 178 174 147 160 189 153 161 145 188 171 139 162 161 167 172 171 154 168 161 149 135 139 157 155 158 138 150 162 141 136 150 138 118 150 148 135 146 146 123 140 154 141 124 126 140 147 131 140 140 151 136 129 146 125 128 131 152 121 116 157 150 173 164 154 143 150 158 149 162 173 163 197 147 166 169 168 175 163 180 178 186 182 197 165 200 186 189 202 209 236 215 240 231 220 266 203 225 262 247 247 313 268 314 290 311 314 303 338 308 349 358 309 313 337 336 354 342 368 372 349 339 356 345 341 354 344 369 363 335 371 291 318 332 313 323 340 308 276 344 294 306 314 264 324 318 293 277 313 269 283 289 250 247 235 243 264 251 244 230 268 229 243 215 207 223 210 202 185 178 183 192 186 183 164 154 171 169 143 199 173 172 152 148 158 145 176 141 161 156 143 159 151 142 136 137 168 135 128 135 137 129 155 143 138 155 136 142 132 135 159 131 131 140 117 138 120 128 127 142 111 126 134 136 138 149 141 141 110 131 123 139 115 128 137 124 129 157 138 127 132 132 98 114 124 121 131 139 127 132 140 153 142 141 140 147 149 152 168 135 164 124 142 165 144 174 133 154 147 160 164 151 149 161 154 165 160 175 154 145 156 180 166 154 175 154 149 156 151 165 148 152 161 141 154 179 159 161 172 169 142 163 138 150 169 167 169 154 180 140 154 145 178 175 170 157 155 155 168 162 166 150 153 144 150 143 154 152 163 172 146 152 129 161 171 154 151 129 174 161 142 187 151 170 172 139 177 146 163 158 186 163 160 161 199 181 171 170 205 165 159 174 178 176 163 195 207 207 180 198 214 210 197 198 185 213 218 198 203 227 229 210 236 262 248 262 256 298 259 303 314 284 338 312 346 374 401 354 404 407 430 406 436 430 486 508 511 507 534 485 508 529 550 533 536 502 497 497 483 549 468 465 501 458 485 492 431 451 456 415 454 471 433 390 416 440 411 400 436 404 416 359 426 365 376 366 352 351 357 319 306 332 300 283 279 263 264 274 228 247 239 200 241 226 212 212 222 202 206 185 190 200 171 178 169 159 189 160 192 177 181 186 200 189 173 155 160 173 150 167 155 156 171 143 117 149 136 156 151 172 135 173 118 133 145 159 168 146 153 164 150 151 150 131 128 153 134 155 164 149 159 147 144 137 160 144 136 154 137 135 128 159 146 156 177 131 157 139 118 151 136 143 125 130 136 133 139 127 140 130 148 122 177 146 163 133 132 144 135 119 115 133 123 126 141 107 136 135 155 118 143 118 123 154 132 128 139 118 137 121 120 142 117 140 113 128 159 162 152 125 133 126 137 124 129 130 128 132 132 129 189 131 146 139 131 146 156 129 147 150 126 129 157 157 135 147 136 154 156 150 154 157 159 156 180 169 190 164 151 172 170 158 200 198 183 188 202 209 213 208 230 229 246 240 261 267 279 278 315 337 342 356 398 390 399 444 447 457 543 524 614 641 543 633 698 619 661 681 642 645 668 644 659 628 662 659 633 607 565 614 585 530 556 580 549 526 574 553 562 569 528 525 552 500 551 541 512 514 498 489 417 455 463 429 422 373 434 385 383 368 326 336 340 359 294 339 281 279 296 272 248 247 223 208 226 202 213 194 171 183 183 193 175 168 155 147 180 145 151 156 152 172 152 141 136 178 164 116 143 134 147 138 122 140 120 133 139 133 139 130 132 167 136 140 130 111 130 129 134 127 129 132 124 133 130 122 123 108 119 108 108 130 109 119 119 104 112 129 113 117 103 120 116 120 124 112 135 137 113 132 108 115 104 125 134 127 107 122 123 134 97 113 139 133 127 104 114 129 106 117 134 94 113 130 129 121 130 106 99 99 115 98 115 112 100 111 124 124 123 137 116 120 126 123 118 116 110 144 132 113 122 130 123 133 132 113 128 131 142 138 129 125 155 141 135 104 132 164 137 142 117 144 121 137 139 156 143 153 140 152 142 137 151 127 157 141 171 141 162 159 156 140 159 163 163 175 152 168 146 153 175 169 179 159 155 159 158 157 192 167 157 163 155 155 148 158 186 153 166 149 138 163 172 143 161 156 182 192 141 165 160 172 167 154 168 177 140 166 163 135 162 138 158 134 160 151 148 158 125 152 140 133 146 124 141 128 149 144 139 143 148 135 146 136 145 125 158 137 156 129 140 134 121 142 141 140 143 147 154 137 142 128 140 162 134 149 145 159 164 168 161 143 159 141 161 164 162 132 162 153 177 161 169 172 194 176 162 192 164 178 161 190 202 188 185 203 201 190 210 190 203 238 210 225 211 223 235 241 221 236 263 229 288 260 263 278 249 262 240 300 228 244 300 300 289 295 263 292 244 292 273 289 273 286 276 267 288 288 290 264 313 296 295 296 278 308 295 299 262 287 276 300 248 289 277 276 276 286 285 262 302 267 261 271 263 292 240 279 268 228 245 240 224 242 240 239 238 224 218 242 227 219 200 226 219 240 191 210 228 208 197 208 210 206 189 195 186 184 214 204 184 197 183 184 172 189 207 170 185 161 181 159 199 178 175 161 154 167 152 178 167 168 158 161 147 151 138 160 167 177 158 156 158 146 142 169 172 139 164 142 149 167 134 129 138 149 134 131 164 165 156 151 151 145 117 146 147 141 145 135 140 141 164 149 133 133 137 142 144 145 134 134 134 129 132 140 126 176 134 125 145 144 130 114 133 127 112 134 122 129 120 124 135 117 131 133 110 132 121 132 145 165 164 128 130 134 102 140 137 120 134 121 124 147 120 105 126 118 122 125 110 119 120 139 122 147 144 135 122 118 132 109 137 149 124 116 124 134 136 135 133 127 124 155 106 129 127 132 127 114 121 115 137 128 98 119 116 141 119 110 121 130 148 123 127 140 108 135 117 142 116 98 130 113 113 113 111 147 111 111 125 134 125 127 128 114 136 139 129 123 106 128 108 128 124 121 145 120 127 127 106 119 114 118 129 123 129 136 114 147 136 125 126 131 114 134 101 117 101 102 118 141 128 120 116 119 118 112 126 104 136 116 108 95 116 124 123 118 99 108 122 127 121 111 127 91 111 118 114 101 115 114 121 107 128 121 116 120 124 117 99 106 115 111 109 120 129 92 113 116 132 112 79 116 125 114 91 91 101 101 118 98 116 109 111 118 105 134 111 97 119 106 99 99 116 114 122 101 89 108 103 115 110 124 129 109 113 114 112 102 103 138 97 132 119 107 103 107 124 132 113 110 122 112 97 101 109 102 102 97 104 110 110 101 121 128 107 104 115 114 123 108 127 113 112 109 115 119 97 115 106 85 114 87 111 83 115 100 112 115 121 113 113 105 111 109 113 134 93 118 121 113 97 112 102 124 120 111 115 116 104 108 98 104 114 115 101 125 101 115 103 136 120 107 118 112 110 123 127 115 131 120 102 117 113 130 125 112 109 100 126 119 120 108 131 128 138 123 135 141 128 131 108 158 133 134 145 141 132 144 137 137 142 164 131 142 140 137 144 153 154 128 142 177 152 182 167 150 182 192 176 169 175 178 166 165 192 197 198 192 199 212 164 211 189 224 188 217 247 221 227 250 250 274 237 234 292 250 247 275 242 226 241 242 279 256 297 290 258 278 267 277 266 277 259 295 295 280 284 259 247 301 265 302 306 277 280 258 278 301 238 285 282 264 294 251 276 264 276 291 283 263 262 297 240 247 261 267 244 283 278 230 296 226 240 242 233 264 243 229 260 227 274 230 270 239 248 259 257 225 262 267 258 249 233 263 287 215 242 216 245 233 235 228 292 222 206 218 225 221 242 246 231 248 234 269 219 232 209 234 242 259 223 233 239 209 262 244 245 227 214 238 243 245 261 228 233 242 221 228 215 226 216 241 216 240 222 183 228 228 215 238 208 220 184 221 215 205 194 236 207 205 213 189 232 205 188 214 194 195 212 201 189 188 208 234 181 191 196 203 188 198 170 203 181 202 178 174 203 172 195 172 170 176 175 179 186 157 186 196 166 164 162 156 161 168 160 162 174 158 162 162 140 146 164 155 152 128 145 162 136 127 130 141 119 143 129 157 116 157 137 163 140 123 122 138 119 133 109 102 111 135 129 127 140 134 123 126 113 113 109 139 128 118 143 117 133 132 123 126 122 131 108 110 134 108 116 134 128 135 99 107 124 114 107 138 96 132 112 119 131 121 118 130 107 116 128 113 103 124 124 103 125 91 117 135 137</intensities>
			</dataPoints>
		</scan>
	</xrdMeasurement>
</xrdMeasurements>
