<?xml version="1.0" encoding="UTF-8"?>
<xrdMeasurements xmlns="http://www.xrdml.com/XRDMeasurement/1.7" xmlns:xsi="http://www.w3.org/2001/XMLSchema-instance" xsi:schemaLocation="http://www.xrdml.com/XRDMeasurement/1.7 http://www.xrdml.com/XRDMeasurement/1.7/XRDMeasurement.xsd" status="Completed">
	<comment>
		<entry>Configuration=Conf. Reflection-transmission spinner, Owner=User-1, Creation date=2/28/2018 8:43:02 AM</entry>
		<entry>Goniometer=Theta/Theta; Minimum step size 2Theta:0.0001; Minimum step size Omega:0.0001</entry>
		<entry>Sample stage=Reflection-transmission spinner; Minimum step size Phi:0.1</entry>
		<entry>Diffractometer system=EMPYREAN</entry>
		<entry>Measurement program=C:\PANalytical\Data Collector\Programs\sample-1.xrdmp, Identifier={BB6687EE-8248-4E06-B0C7-67735DEB5D7E}</entry>
		<entry>Batch program=C:\PANalytical\Data Collector\Programs\P3.xrdmp, Identifier={110013A4-273B-4C82-A4D1-871885B7687B}</entry>
	</comment>
	<sample type="To be analyzed">
		<id></id>
		<name></name>
		<preparedBy></preparedBy>
	</sample>
	<xrdMeasurement measurementType="Scan" status="Completed" sampleMode="Reflection">
		<comment>
			<entry>PHD Lower Level = 4.02 (keV), PHD Upper Level = 11.27 (keV)</entry>
		</comment>
		<usedWavelength intended="K-Alpha 1">
			<kAlpha1 unit="Angstrom">1.5405980</kAlpha1>
			<kAlpha2 unit="Angstrom">1.5444260</kAlpha2>
			<kBeta unit="Angstrom">1.3922500</kBeta>
			<ratioKAlpha2KAlpha1>0.5000</ratioKAlpha2KAlpha1>
		</usedWavelength>
		<incidentBeamPath>
			<radius unit="mm">240.00</radius>
			<xRayTube id="1010048" name="Empyrean Cu LFF HR (9430 033 7310x) DK427586">
				<tension unit="kV">40.0</tension>
				<current unit="mA">40.0</current>
				<anodeMaterial>Cu</anodeMaterial>
				<focus type="Line">
					<length unit="mm">12.0</length>
					<width unit="mm">0.4</width>
					<takeOffAngle unit="deg">4.4</takeOffAngle>
				</focus>
			</xRayTube>
			<xRayMirror id="27020009" name="Bragg-Brentano HD" hybrid="false">
				<crystal type="Graded" shape="Flat">BB/HD</crystal>
				<acceptanceAngle unit="deg">0.800</acceptanceAngle>
				<length unit="mm">55.3</length>
			</xRayMirror>
			<sollerSlit id="21010002" name="Soller slits 0.04 rad.">
				<opening unit="rad">0.0400</opening>
			</sollerSlit>
			<mask id="22030009" name="Fixed mask 10 mm">
				<width unit="mm">10.00</width>
			</mask>
			<antiScatterSlit id="22010003" name="Fixed slit 1°" xsi:type="fixedAntiScatterSlitType">
				<height unit="mm">1.52</height>
			</antiScatterSlit>
			<divergenceSlit id="22010005" name="Fixed slit 1/4°" xsi:type="fixedDivergenceSlitType">
				<distanceToSample unit="mm">140.00</distanceToSample>
				<height unit="mm">0.38</height>
			</divergenceSlit>
		</incidentBeamPath>
		<diffractedBeamPath>
			<radius unit="mm">240.00</radius>
			<antiScatterSlit id="22090010" name="AS slit 8.0 mm (PIXcel)" xsi:type="fixedAntiScatterSlitType">
				<height unit="mm">8.00</height>
			</antiScatterSlit>
			<sollerSlit id="21020003" name="Large Soller slits 0.04 rad.">
				<opening unit="rad">0.0400</opening>
			</sollerSlit>
			<detector id="7010019" name="PIXcel1D-Medipix3 detector" xsi:type="rtmsDetectorType">
				<phd unit="%">
					<lowerLevel>25.0</lowerLevel>
					<upperLevel>70.0</upperLevel>
				</phd>
				<mode>Scanning</mode>
				<activeLength unit="deg">3.3482</activeLength>
			</detector>
		</diffractedBeamPath>
		<scan appendNumber="0" mode="Continuous" scanAxis="Gonio" status="Completed">
			<header>
				<startTimeStamp>2025-12-28T17:47:21+08:00</startTimeStamp>
				<endTimeStamp>2025-12-28T17:58:53+08:00</endTimeStamp>
				<author>
					<name>User</name>
				</author>
				<source>
					<applicationSoftware version="5.5a">Data Collector</applicationSoftware>
					<instrumentControlSoftware version="7.9j 20171025">EMPYREAN</instrumentControlSoftware>
					<instrumentID>0000000011214615</instrumentID>
				</source>
			</header>
			<dataPoints>
				<positions axis="2Theta" unit="deg">
					<startPosition>6.00558257</startPosition>
					<endPosition>75.99655438</endPosition>
				</positions>
				<positions axis="Omega" unit="deg">
					<startPosition>3.00279129</startPosition>
					<endPosition>37.99827719</endPosition>
				</positions>
				<positions axis="Phi" unit="deg">
					<commonPosition>0.0</commonPosition>
				</positions>
				<commonCountingTime unit="seconds">13.770</commonCountingTime>
				<intensities unit="counts">456 447 431 463 455 445 430 478 476 446 458 438 395 427 449 422 455 466 463 456 448 425 456 462 436 428 463 426 450 446 436 417 471 448 412 470 418 434 459 452 457 437 457 412 451 416 452 459 456 419 429 469 436 399 442 426 467 449 412 483 409 438 442 447 445 442 454 451 444 434 467 398 415 445 446 444 438 416 457 386 449 420 461 482 450 458 450 404 490 408 429 443 449 437 414 425 458 432 474 442 432 421 416 439 395 414 416 488 386 438 390 445 446 435 415 447 439 436 438 418 425 448 444 467 450 459 395 414 411 439 419 426 428 422 432 422 425 413 416 467 440 409 457 425 424 428 399 397 449 407 406 393 462 401 432 414 422 425 399 430 416 449 445 418 456 456 473 410 451 387 380 412 428 429 432 417 403 366 434 460 459 423 422 416 423 389 398 406 443 407 413 399 420 403 436 411 417 413 462 394 392 426 400 412 399 415 384 427 442 421 374 388 404 392 398 396 387 409 421 416 412 416 436 423 409 412 402 462 459 409 399 432 375 404 427 403 457 412 427 438 360 414 398 421 395 418 433 402 412 393 387 368 408 402 394 428 382 417 445 430 403 392 447 417 371 391 394 382 366 399 364 403 437 391 408 411 410 402 362 390 463 417 387 416 416 365 404 418 419 433 391 405 411 417 378 424 427 426 416 426 408 422 410 418 379 366 413 374 386 402 389 396 358 380 386 420 382 395 402 404 378 410 378 416 417 398 380 384 394 416 375 419 403 398 408 439 404 378 390 404 423 374 402 417 350 381 397 394 409 380 415 387 364 390 443 415 419 403 381 384 402 405 376 442 391 361 395 396 407 408 403 354 370 389 397 384 381 410 393 364 349 375 403 411 380 377 374 365 368 397 409 369 367 399 388 396 389 380 394 386 381 417 369 373 352 403 404 380 415 372 381 364 362 422 386 404 390 409 370 398 369 364 377 374 377 395 408 382 409 362 373 356 415 410 332 382 392 401 377 391 373 377 398 405 400 399 379 405 376 408 391 407 368 350 429 344 412 359 395 384 365 374 364 403 390 382 364 347 387 363 391 361 376 396 373 346 404 394 379 359 376 374 406 393 388 382 377 364 413 410 382 358 405 385 384 397 333 376 399 362 359 378 342 340 382 401 373 337 379 391 376 377 372 388 387 367 368 379 387 397 378 347 355 384 364 363 371 345 360 384 373 354 351 367 367 336 368 375 340 348 379 350 368 386 342 398 347 350 342 384 369 334 356 338 330 336 349 345 334 386 342 384 375 351 386 355 366 362 360 374 388 351 399 355 386 367 369 344 330 372 359 355 387 325 341 363 354 341 348 352 380 405 346 389 369 366 374 352 353 381 331 336 395 343 348 358 385 341 382 359 359 350 376 365 383 363 337 348 354 344 374 340 338 361 375 344 314 371 361 325 353 344 326 327 339 381 343 373 346 328 346 363 345 386 359 330 365 359 351 338 352 332 361 337 391 358 386 371 338 317 329 331 335 364 337 366 360 346 339 357 329 331 375 356 373 342 325 359 370 312 331 314 309 349 328 351 342 332 368 313 371 329 352 318 349 357 336 346 372 338 334 356 331 378 350 351 330 334 368 346 365 372 329 356 342 355 349 344 332 364 364 324 351 321 358 340 345 328 340 379 329 357 348 352 322 357 391 337 370 351 341 346 328 319 335 347 342 332 338 339 365 332 347 305 349 314 378 338 339 322 338 290 321 358 327 346 346 326 348 326 363 343 336 340 342 334 325 356 345 336 336 317 330 322 315 359 358 322 356 307 372 363 331 340 349 280 350 343 341 308 349 336 321 352 311 337 352 338 323 365 365 317 300 338 328 320 327 337 380 327 335 331 365 317 356 327 325 311 331 365 337 299 334 320 329 338 334 318 319 326 312 326 333 344 324 342 355 331 307 286 349 294 348 374 279 325 323 334 350 339 345 316 344 338 348 347 334 343 347 349 313 334 316 330 340 327 309 334 327 330 300 302 316 357 283 335 351 334 301 345 304 351 337 326 343 308 331 329 339 342 357 315 299 285 339 312 319 304 328 322 351 320 317 319 344 347 295 312 333 316 358 318 343 299 330 330 285 331 324 341 363 311 334 317 332 325 334 320 292 294 324 308 316 316 289 294 360 318 297 318 335 284 314 334 306 305 315 286 292 285 314 303 317 333 311 309 314 306 323 305 325 348 326 310 291 326 334 333 311 317 293 349 294 288 332 304 341 321 314 320 327 308 315 285 325 308 298 322 305 337 289 321 296 356 306 309 328 351 347 303 302 324 308 296 295 327 299 319 347 309 288 300 302 311 311 318 317 278 347 283 294 317 319 325 299 281 307 327 298 311 292 291 298 313 292 348 293 317 285 305 291 316 309 309 319 290 303 309 284 296 302 278 296 326 317 289 305 300 300 300 345 296 279 304 286 315 310 296 267 299 357 315 302 296 290 287 311 289 323 295 352 297 291 306 302 290 321 309 308 287 302 306 299 279 295 288 326 298 315 291 305 294 307 278 291 306 329 279 309 289 286 281 280 311 328 296 296 316 328 279 297 274 307 282 295 320 300 316 271 282 299 302 309 265 236 293 306 315 286 288 302 299 307 330 306 296 317 297 303 341 301 275 331 298 296 267 295 302 258 297 304 309 272 265 303 259 247 287 312 299 277 290 303 298 291 286 272 274 262 270 291 301 298 294 286 289 299 278 296 300 286 287 293 311 250 295 301 296 266 259 299 282 297 266 297 286 277 283 298 275 273 270 300 296 278 278 282 286 283 277 321 277 295 268 269 299 264 273 230 271 277 291 294 277 259 290 279 282 244 280 267 282 271 271 299 296 318 263 257 274 258 277 264 283 290 288 309 286 277 278 261 258 276 284 273 277 277 258 300 280 294 265 278 285 264 271 321 263 298 284 275 272 264 311 277 269 304 286 269 261 276 294 285 236 250 258 304 269 264 267 272 256 275 278 276 308 280 275 266 281 261 292 280 290 290 295 292 256 264 271 273 285 269 290 261 258 280 313 271 246 278 260 265 249 248 271 285 271 280 235 245 268 275 260 260 295 281 265 259 265 265 266 258 257 295 256 297 237 276 271 272 292 277 291 250 235 267 250 288 282 278 263 267 231 275 263 273 261 264 243 270 242 262 240 273 279 300 276 265 246 235 281 273 238 241 244 248 237 280 245 273 250 258 240 274 278 244 244 257 275 247 277 284 282 277 264 256 245 263 282 249 265 295 286 249 284 236 275 246 280 244 286 220 269 271 269 242 308 277 231 222 265 258 235 245 249 226 272 274 263 249 262 245 224 275 287 263 271 283 261 271 279 229 263 278 240 280 294 246 286 244 275 265 274 258 258 299 275 269 236 269 287 292 259 263 277 258 288 262 285 295 249 262 295 290 296 291 268 282 297 303 256 308 316 263 315 298 273 283 309 316 298 299 302 289 301 308 351 351 360 322 331 348 306 344 385 359 367 390 390 394 416 418 408 415 407 442 432 453 475 461 540 539 538 489 588 615 634 635 628 657 730 718 790 763 836 889 917 969 991 1018 1124 1106 1178 1213 1296 1365 1440 1484 1564 1645 1628 1728 1760 1811 1706 1690 1731 1744 1682 1649 1546 1441 1385 1284 1155 1064 965 954 807 775 682 675 588 556 541 497 507 455 452 396 386 396 362 378 397 338 347 344 327 301 355 316 340 319 319 345 333 312 292 308 278 314 298 298 302 290 290 286 261 281 308 264 272 275 263 294 283 299 274 285 282 268 273 240 281 285 285 289 284 294 231 261 270 240 270 261 307 229 260 251 285 257 257 247 265 270 260 237 242 258 227 247 258 227 227 261 263 263 244 270 261 246 285 231 262 249 249 270 230 287 208 258 256 221 226 241 247 268 250 249 256 222 245 235 232 233 214 242 246 240 248 246 240 235 228 246 246 225 249 262 243 261 261 276 215 229 239 261 246 240 235 217 244 235 258 210 237 224 238 273 262 223 237 249 265 222 259 211 242 239 241 217 228 216 219 226 242 228 238 248 222 223 229 196 213 237 234 232 233 225 237 235 240 204 217 218 208 228 235 263 233 224 229 225 242 238 245 234 230 210 209 261 237 231 250 244 259 236 247 231 237 268 227 214 247 229 261 216 241 230 230 256 221 220 232 235 241 226 217 264 247 244 231 241 217 244 222 238 235 219 248 250 239 265 220 217 212 230 266 212 282 221 231 245 233 237 246 267 234 230 241 225 227 230 220 216 230 213 240 234 238 234 221 223 216 244 245 246 232 226 246 242 201 222 228 194 219 222 260 221 241 216 235 232 233 229 205 247 225 221 210 231 226 224 211 215 241 229 231 202 231 237 203 225 231 234 234 213 214 244 224 212 225 226 235 223 234 222 241 199 244 222 230 214 220 236 256 249 220 218 238 201 231 217 219 218 214 234 239 215 206 215 219 221 199 228 234 211 180 188 217 241 228 227 231 214 219 206 223 209 246 223 208 230 205 213 223 228 222 212 227 199 213 246 230 200 207 267 215 247 205 249 233 232 241 237 200 246 226 225 236 230 210 219 235 240 214 213 209 217 223 241 225 210 208 230 208 221 216 264 219 240 233 213 199 236 199 220 239 225 224 239 219 227 212 256 232 246 229 236 228 219 224 248 234 239 205 213 242 229 220 224 211 238 203 213 210 217 222 270 231 238 244 236 204 219 231 224 203 230 220 218 237 209 215 235 227 228 245 215 230 194 226 214 231 204 216 216 206 209 227 222 200 242 237 235 204 258 216 239 249 188 225 248 204 218 199 233 215 226 216 204 249 202 208 214 219 226 235 208 227 250 215 227 199 249 215 228 210 233 236 234 231 212 217 215 207 205 210 209 225 220 229 198 224 220 214 225 234 223 232 209 227 223 195 248 222 210 201 206 227 202 203 220 233 200 208 247 233 234 259 206 215 213 219 218 194 219 200 218 220 216 215 212 191 223 198 194 215 245 230 222 240 227 198 206 239 203 218 199 213 209 236 218 215 202 218 213 187 208 229 211 191 209 220 199 207 216 207 197 221 208 208 238 204 219 205 209 218 223 226 218 217 197 227 210 200 213 195 225 209 212 177 206 216 212 220 238 262 225 212 208 215 223 234 221 216 194 216 210 208 223 209 222 202 219 221 211 207 193 228 226 207 214 220 204 211 230 209 207 215 202 195 207 222 214 196 200 217 199 200 228 208 216 215 226 223 192 198 204 189 185 228 217 225 231 231 247 198 203 208 191 214 220 211 178 209 198 210 223 196 211 216 197 204 188 188 220 215 213 231 196 202 223 208 171 231 206 231 219 177 210 198 228 207 182 201 179 221 214 223 199 198 229 192 209 222 196 220 205 200 237 208 195 209 200 192 182 205 209 209 190 204 212 222 182 190 173 205 193 214 208 214 205 211 195 209 195 212 207 198 163 184 198 198 199 183 193 203 203 225 190 202 210 176 223 230 186 206 214 204 217 192 202 196 199 191 183 197 224 203 200 204 193 201 200 206 193 207 204 191 210 187 207 225 196 193 199 204 203 192 215 182 201 156 199 203 195 211 173 173 217 208 198 214 197 211 201 203 186 172 203 199 204 175 186 209 197 222 180 215 202 205 202 191 193 189 186 210 204 200 211 190 188 181 171 196 196 229 195 201 186 217 169 184 205 190 202 189 208 189 182 181 189 181 185 216 198 194 197 182 169 193 186 181 193 192 193 204 187 189 180 226 167 202 179 170 193 179 180 205 172 176 192 184 193 188 224 159 179 165 196 203 200 187 170 197 184 185 202 203 164 187 176 195 181 156 190 169 189 187 214 208 157 184 194 186 201 168 207 176 181 200 181 196 204 170 191 184 197 192 186 202 184 175 203 175 184 194 181 183 177 182 167 182 198 180 199 187 195 171 185 194 171 193 194 195 201 185 189 157 185 198 214 192 178 193 195 165 200 187 179 198 222 183 191 199 191 185 192 182 194 209 187 204 185 195 177 215 199 221 165 204 202 204 189 178 192 216 192 216 205 198 200 202 217 216 212 232 191 247 207 202 199 210 224 188 195 183 228 195 200 187 203 187 189 195 207 215 170 205 189 205 198 195 202 195 203 188 228 169 171 192 176 189 182 184 176 170 171 170 202 189 173 203 181 182 143 186 197 174 174 173 179 182 178 192 167 172 189 167 183 178 179 182 182 193 181 181 185 191 194 178 159 192 180 179 170 176 192 192 186 204 161 163 183 183 184 188 196 179 183 204 189 147 165 169 177 161 171 172 168 176 192 152 179 161 168 174 182 190 197 191 169 187 182 191 195 179 196 186 181 182 165 193 175 160 183 178 164 169 187 167 180 186 177 178 169 164 180 151 146 185 202 181 184 168 163 159 187 186 180 171 189 168 156 155 202 199 165 162 177 181 178 200 185 187 171 173 169 179 182 180 181 154 170 172 174 147 183 167 183 190 181 207 183 222 181 198 185 164 206 187 169 162 168 195 188 201 179 161 185 172 198 170 202 173 178 187 199 183 179 217 195 194 192 185 209 201 175 186 186 211 199 207 186 190 188 180 175 220 164 189 199 206 213 200 197 183 188 191 209 202 184 185 201 207 195 195 197 189 208 182 196 209 180 199 228 224 230 209 219 213 215 194 220 224 229 198 231 237 224 242 283 237 259 277 298 285 294 321 317 327 358 378 382 373 383 425 382 397 459 499 533 587 576 632 657 693 780 758 803 831 898 935 1058 1065 1083 1086 1177 1092 1172 1177 1154 1146 1161 1137 1148 1093 1085 1056 1048 974 967 919 838 773 746 691 694 644 666 608 590 595 537 519 509 486 460 449 464 456 445 449 454 424 444 453 456 458 476 500 470 511 505 550 538 588 597 593 615 637 702 663 707 767 802 856 847 886 990 1010 1070 1155 1214 1228 1284 1308 1351 1386 1475 1476 1492 1516 1580 1583 1536 1601 1598 1635 1577 1671 1532 1574 1603 1643 1616 1640 1686 1707 1750 1715 1707 1784 1735 1858 1878 1886 1926 1951 2041 2061 2077 2072 2009 1988 1965 1902 1863 1873 1746 1722 1611 1601 1515 1476 1351 1205 1200 1145 1125 1016 988 885 847 786 660 692 637 630 569 544 545 520 515 451 421 467 389 389 389 371 382 375 392 324 289 350 323 326 325 301 281 290 309 284 270 285 306 267 249 266 246 247 231 257 216 214 266 221 247 233 216 213 215 229 232 198 196 193 204 233 187 225 194 210 210 212 187 240 196 191 208 187 170 188 177 171 189 201 194 184 182 176 177 168 183 179 194 202 190 196 212 174 182 167 193 170 185 193 205 193 179 185 184 165 191 179 190 165 170 164 189 172 177 184 181 185 200 184 159 184 166 187 163 195 196 175 159 144 184 157 175 180 167 154 159 158 176 165 141 174 180 154 170 174 162 170 146 162 147 174 174 167 161 169 166 160 152 175 172 163 157 177 183 175 153 176 171 156 166 159 150 174 143 150 163 168 160 165 196 156 177 179 179 161 174 151 175 158 178 183 164 166 158 166 175 143 165 146 163 162 172 161 164 175 197 168 163 177 170 165 173 181 176 170 155 164 165 157 180 153 181 150 143 139 160 162 156 176 158 173 161 151 146 166 172 145 172 156 159 167 174 158 150 158 147 139 145 159 158 153 157 153 150 129 138 160 137 131 185 184 180 157 159 148 164 150 162 141 151 146 146 148 171 158 158 160 151 157 147 131 154 137 150 167 145 150 157 159 150 153 185 159 160 142 167 149 140 152 181 170 156 157 162 144 147 170 149 153 153 134 175 163 146 152 132 158 142 160 161 145 160 163 150 145 158 151 144 147 125 140 177 170 155 157 164 161 166 129 150 147 164 143 158 151 150 150 140 166 148 164 137 155 177 169 148 164 159 155 153 149 153 142 144 177 148 139 152 156 151 171 145 129 150 170 145 138 141 152 143 149 150 145 155 160 145 135 142 175 157 187 160 156 143 140 148 146 165 134 146 156 153 149 139 158 155 162 166 138 153 153 156 151 154 146 151 150 157 170 151 152 156 158 141 149 152 156 154 152 159 175 144 156 131 151 160 143 150 144 137 151 145 157 171 158 148 120 163 164 153 150 148 123 144 157 160 153 161 146 151 169 148 125 154 172 160 179 155 140 139 169 148 171 153 160 138 139 155 160 152 149 182 165 156 161 139 151 160 147 158 133 157 136 146 160 132 154 156 122 149 162 139 164 132 156 140 161 137 149 132 135 141 132 143 172 143 143 149 164 148 141 143 134 153 132 159 158 142 153 149 171 147 150 141 148 137 147 131 164 152 131 159 145 137 123 130 154 145 154 139 142 128 155 144 119 145 141 136 163 146 141 137 155 142 158 146 176 132 170 141 153 151 158 151 146 163 148 147 136 150 150 153 161 162 135 133 136 133 154 154 169 159 164 151 116 145 148 153 150 139 126 153 159 153 152 139 151 170 153 145 132 111 161 167 142 142 138 137 152 140 133 165 155 135 150 137 166 153 146 169 175 166 159 160 146 149 133 130 160 177 150 145 165 145 133 174 157 143 136 171 150 146 156 168 156 153 163 162 153 152 168 174 165 181 150 178 176 171 187 192 196 184 210 223 216 222 207 229 243 231 241 282 226 291 314 292 293 353 342 349 351 365 392 387 442 458 451 487 472 523 492 503 559 551 527 529 535 525 534 491 521 520 461 453 433 421 400 371 360 365 324 339 313 296 308 259 246 237 262 212 222 209 184 218 205 235 190 194 199 203 213 182 179 187 183 169 177 180 167 169 193 181 175 183 166 195 175 176 176 158 160 183 163 183 169 186 162 163 181 193 174 187 166 171 172 202 177 151 178 163 170 184 160 159 188 188 143 171 163 145 153 185 199 191 156 176 182 183 161 196 147 170 185 177 158 196 158 153 146 171 161 135 157 172 145 141 169 159 146 139 162 163 148 148 162 155 138 143 157 153 133 133 138 144 170 169 141 152 147 156 174 149 146 139 164 134 150 140 168 139 146 160 148 121 154 123 157 156 131 147 116 143 146 152 149 160 143 161 121 148 145 145 157 136 134 162 137 107 150 144 128 143 156 134 144 152 152 141 162 139 138 144 146 127 150 158 146 146 143 146 151 148 140 155 134 142 133 116 130 150 153 126 145 136 131 128 172 156 165 146 161 139 131 129 149 139 135 159 171 157 159 144 135 136 145 149 170 147 155 145 142 156 156 150 129 134 154 161 151 142 152 131 144 164 147 162 168 157 142 145 162 160 154 140 126 182 178 143 140 156 146 141 161 148 147 190 167 161 172 174 168 183 165 168 174 159 177 188 163 202 183 182 199 187 181 199 192 193 187 183 182 178 187 210 237 222 258 231 247 241 238 284 277 277 314 284 317 367 331 333 367 401 393 410 451 430 475 471 498 533 566 589 599 677 649 689 764 725 752 810 842 879 882 873 917 949 967 948 971 955 1015 1001 888 847 846 826 816 766 792 729 726 714 649 648 592 564 551 508 529 467 443 428 372 357 346 354 308 304 312 281 249 302 290 247 236 222 196 228 228 209 203 205 215 187 203 189 171 177 204 186 188 163 168 191 192 170 184 183 172 170 171 175 185 173 156 174 183 181 150 160 178 176 177 181 162 163 178 172 157 156 132 165 160 145 140 160 180 150 159 173 147 163 155 177 165 158 173 142 150 143 161 139 136 137 154 145 138 140 157 153 158 145 140 171 152 174 131 146 142 154 150 133 130 154 146 146 170 134 156 164 150 153 162 158 159 145 132 161 150 186 152 155 163 169 169 158 144 160 137 157 147 142 128 139 167 143 154 141 148 154 149 148 159 140 175 159 165 156 135 164 182 150 148 140 165 133 145 141 158 146 155 148 141 187 172 173 155 154 145 153 176 161 157 191 153 172 194 173 160 170 138 169 166 175 151 156 182 182 180 151 192 164 178 219 201 167 207 185 167 193 179 190 178 193 195 217 177 187 202 195 206 210 183 187 225 211 217 229 230 232 224 225 265 242 232 289 259 273 293 265 323 333 323 344 345 347 396 421 422 467 444 495 521 552 576 574 690 717 715 817 860 890 929 952 1052 1054 1178 1261 1354 1410 1452 1529 1599 1537 1577 1662 1668 1832 1867 1741 1931 1831 1834 1856 1939 1949 1864 1921 1865 1937 1890 1812 1888 1743 1820 1773 1650 1720 1583 1557 1443 1496 1358 1309 1219 1239 1131 1118 1092 1041 919 929 910 841 790 776 752 701 670 578 571 583 518 518 462 437 453 397 439 391 348 331 333 357 298 298 321 324 308 327 287 241 290 275 266 289 253 249 287 245 233 265 267 275 249 224 234 226 227 234 266 218 226 211 230 203 189 187 222 211 206 194 217 201 196 219 174 200 201 182 174 176 184 189 174 195 177 198 200 175 191 191 204 165 184 174 156 189 166 165 145 187 158 180 172 181 161 159 167 162 169 161 176 144 160 174 169 158 163 164 159 168 167 145 150 139 163 156 137 140 148 138 146 189 145 147 143 158 141 145 165 146 148 156 161 155 143 128 157 128 146 127 159 154 151 140 165 166 118 127 172 151 144 153 135 125 148 137 150 132 120 150 159 142 153 132 152 148 146 150 154 148 138 145 120 156 128 147 154 133 136 161 147 147 137 138 141 148 144 149 154 154 147 162 122 136 121 152 152 168 147 155 117 146 172 145 169 153 150 174 143 172 142 163 157 160 168 151 147 147 175 130 198 177 176 196 160 176 155 161 168 187 196 172 202 175 177 177 199 183 188 220 206 228 213 260 225 244 274 279 244 260 259 295 312 317 322 324 324 353 312 339 401 366 373 360 386 345 349 352 354 300 341 325 327 299 299 325 293 291 301 294 296 287 266 231 216 235 209 241 234 199 244 227 207 171 209 189 200 181 185 176 170 202 205 189 180 155 169 151 209 176 163 192 166 185 175 175 187 185 182 199 210 164 190 171 201 192 187 173 180 187 179 206 217 206 245 236 228 221 232 291 271 243 276 313 303 357 297 385 380 427 441 512 563 565 569 624 650 690 694 740 774 777 745 784 808 752 674 732 745 681 681 656 645 649 617 619 619 560 505 507 489 473 427 429 392 379 347 366 313 311 311 290 267 250 271 251 210 228 207 185 175 208 179 182 174 190 168 188 183 178 148 174 141 141 152 148 162 133 161 154 149 140 147 174 145 159 151 157 161 126 166 137 140 165 129 144 150 149 140 142 157 148 144 146 125 149 141 124 126 164 141 153 162 147 121 155 120 125 133 141 147 140 146 130 145 147 144 132 139 135 140 143 143 161 113 152 121 146 130 133 136 146 124 143 129 144 148 143 124 147 152 119 149 124 148 147 134 151 146 142 156 119 157 140 141 119 129 136 168 151 131 122 120 163 140 139 141 139 154 141 146 134 124 135 151 142 146 157 167 155 154 141 153 158 158 155 161 160 170 165 148 189 151 169 183 178 180 203 190 177 172 184 190 218 235 215 224 232 225 274 248 280 270 263 267 274 285 296 310 318 339 342 357 345 349 361 374 405 411 420 396 405 441 427 464 476 489 460 448 426 443 449 451 431 452 396 453 420 423 395 399 408 384 398 394 364 344 338 343 338 313 324 280 282 271 261 249 273 236 241 215 226 241 203 215 185 188 189 182 172 188 187 171 181 164 166 159 141 140 147 175 148 138 130 155 162 112 145 170 130 161 144 134 154 135 123 123 128 143 129 136 152 127 121 164 148 115 139 140 149 123 125 134 136 129 139 126 153 110 111 128 123 129 135 149 134 119 148 133 141 133 137 124 142 151 134 117 127 131 138 142 151 141 125 118 111 111 122 133 140 128 141 126 141 121 128 127 123 149 119 131 119 153 141 119 123 115 119 106 122 129 135 118 117 142 119 115 125 127 136 117 140 143 155 152 142 132 131 129 138 122 124 127 132 148 133 139 136 114 120 151 119 134 137 145 129 159 156 142 134 147 158 177 130 147 154 144 173 143 167 168 144 144 160 151 185 151 173 170 175 190 175 195 179 187 211 199 202 184 231 233 233 250 232 236 262 243 262 300 304 311 344 345 349 394 420 430 452 484 463 521 592 546 652 612 656 738 717 814 838 895 891 918 999 963 993 1068 1007 1009 1103 1125 1135 1177 1177 1035 1064 1106 1067 1091 978 1013 979 889 934 914 944 830 810 763 792 784 705 684 644 637 581 564 472 479 465 434 437 434 387 391 341 307 318 301 295 299 263 276 269 276 238 248 235 222 235 210 235 181 185 184 218 195 176 186 189 167 183 189 180 183 171 173 161 165 147 187 168 186 162 163 150 178 139 155 145 177 135 129 157 127 184 140 156 158 144 133 140 139 111 140 168 155 155 129 150 150 126 126 161 148 144 156 141 113 113 161 132 170 155 143 132 142 127 150 151 130 135 130 129 146 120 155 164 127 150 148 135 142 143 146 143 140 131 123 157 120 122 137 125 154 124 132 140 135 129 131 129 119 126 138 145 141 128 139 138 147 135 155 126 121 136 158 164 152 120 139 147 141 135 111 113 125 127 130 130 99 132 124 112 130 162 135 127 132 131 131 146 151 154 139 137 135 148 138 131 128 126 141 126 146 140 146 151 116 155 144 149 150 159 143 162 137 156 162 145 169 179 172 147 181 174 180 206 197 186 182 202 194 236 237 232 228 242 231 223 274 267 273 246 280 295 277 297 295 339 327 362 370 363 402 378 420 437 418 483 476 500 467 512 506 480 468 566 494 529 524 558 499 496 531 508 511 512 489 502 514 505 470 458 485 460 402 441 419 440 365 373 359 364 360 377 329 316 320 301 327 286 275 275 269 293 267 267 300 268 224 238 256 261 259 262 224 238 247 242 247 261 260 245 281 247 222 234 230 257 238 240 275 269 251 272 283 282 303 340 329 310 383 356 332 376 425 435 475 494 487 535 595 628 765 759 801 825 860 983 1096 1060 1189 1177 1259 1301 1317 1381 1346 1503 1495 1459 1484 1501 1526 1483 1446 1378 1358 1419 1330 1408 1364 1286 1263 1256 1196 1166 1146 1107 986 982 963 923 896 853 775 760 641 653 599 534 505 523 470 470 456 387 396 403 351 391 350 311 316 284 265 264 271 265 221 262 229 208 190 220 203 200 186 190 224 201 184 183 162 199 174 189 187 173 180 175 172 164 160 190 157 151 173 169 140 167 139 141 150 136 132 147 169 146 161 155 146 128 149 147 130 145 148 124 126 105 129 153 130 129 131 131 121 139 122 149 126 136 136 142 120 136 138 119 126 124 157 126 125 129 153 138 126 124 129 129 137 131 130 135 132 125 137 120 117 136 127 123 153 115 125 130 142 136 133 128 122 118 145 136 121 129 142 132 128 130 151 168 134 129 142 123 151 141 138 130 146 142 141 159 168 169 153 162 143 153 154 143 170 164 154 162 161 174 148 153 158 162 174 163 156 149 154 161 182 158 142 168 154 173 144 158 166 174 156 166 155 155 126 142 155 142 122 134 158 139 132 142 150 132 142 148 140 133 147 130 138 127 143 126 140 133 118 121 128 112 125 128 123 105 131 131 133 115 115 123 142 117 123 102 104 122 117 123 127 126 112 126 136 108 125 129 120 131 123 97 101 141 122 162 123 108 134 134 126 130 140 128 147 134 104 102 117 118 137 121 114 124 141 105 152 111 119 123 133 126 119 138 115 146 129 122 126 134 137 125 135 142 119 130 124 122 117 123 121 127 115 114 128 119 114 128 114 118 117 113 118 119 128 106 107 132 106 106 125 116 103 102 137 129 129 115 144 118 119 117 130 135 113 103 129 108 110 120 129 127 120 117 118 118 133 120 131 109 127 99 112 126 100 103 107 125 117 122 126 132 126 116 90 132 141 105 99 136 121 113 131 132 130 130 109 106 118 109 118 120 127 120 137 121 148 119 124 133 105 136 132 123 134 130 136 136 126 131 146 127 144 145 135 141 152 137 156 109 142 139 153 169 159 137 141 130 126 152 128 114 131 120 140 109 142 114 125 125 148 138 128 131 129 122 157 123 134 124 133 123 124 127 136 148 130 114 116 115 125 108 121 133 120 128 107 118 115 114 113 125 122 133 109 133 107 100 115 124 99 107 116 120 139 111 128 110 130 125 107 135 129 118 123 113 132 115 123 120 137 127 115 107 115 122 135 104 131 104 108 101 139 127 124 141 110 130 133 115 117 117 140 113 111 100 112 124 123 106 130 131 113 124 128 132 139 127 125 134 112 124 97 156 125 113 120 136 138 128 117 127 114 119 129 140 114 131 133 142 125 107 120 141 128 122 115 119 127 136 121 125 109 129 120 117 136 138 134 144 156 125 141 114 124 120 126 132 141 139 142 146 138 134 128 157 119 124 113 147 130 145 138 136 128 133 156 123 176 156 144 129 155 151 150 143 150 146 148 151 144 142 138 154 144 143 139 152 132 163 147 143 157 137 129 137 129 145 139 136 138 144 137 152 149 127 156 144 164 172 155 134 149 146 172 154 144 148 141 159 155 126 153 140 150 138 135 153 152 162 160 156 161 154 154 150 175 164 174 145 173 175 181 188 177 156 173 173 156 186 214 177 198 222 173 170 200 182 186 169 198 199 184 168 193 196 212 234 227 214 206 229 207 203 200 199 176 196 229 211 219 189 181 197 221 204 208 202 194 178 158 209 198 186 184 200 192 174 183 199 175 170 163 176 171 208 191 187 153 171 177 173 170 180 174 165 186 180 154 170 163 158 143 183 158 140 156 176 171 171 171 138 175 168 160 153 160 159 172 163 146 154 169 136 159 151 150 155 140 154 160 144 131 133 161 154 127 141 129 144 144 174 151 129 169 153 146 141 141 119 155 141 154 136 154 141 146 143 144 148 126 155 155 146 149 156 157 149 139 147 176 144 154 141 149 173 146 147 134 160 157 144 162 141 143 158 169 154 150 148 140 164 141 164 158 194 168 144 158 164 155 129 184 170 155 139 158 184 188 182 160 162 184 153 170 187 181 171 195 184 181 201 177 188 180 195 179 184 182 188 166 169 204 185 197 234 227 216 218 198 235 216 224 224 220 224 215 265 245 258 265 264 245 239 265 248 225 232 258 250 259 241 227 216 241 257 261 268 279 230 234 237 258 234 244 206 230 246 227 182 180 223 184 192 192 204 186 166 171 198 160 175 177 178 195 207 170 161 171 183 154 181 163 179 163 145 132 162 151 135 137 122 127 127 138 147 134 137 129 149 133 118 122 135 122 127 163 118 129 123 119 108 116 141 128 130 138 142 127 120 128 137 101 120 109 134 132 121 126 141 132 106 134 99 124 125 114 105 113 104 117 122 120 136 115 122 107 95 131 134 112 101 126 121 121 125 110 121 128 107 101 84 92 98 128 113 98 105 136 119 111 126 125 109 134 106 125 126 113 110 123 105 142 136 117 106 115 134 127 118 109 108 115 112 123 123 104 138 109 122 119 110 113 107 105 139 116 128 145 109 120 122 139 108 136 133 126 123 149 121 130 110 115 101 110 130 113 127 121 121 135 121 124 129 133 126 127 125 129 124 146 121 120 133 139 129 129 127 135 127 121 134 117 128 141 124 103 127 141 135 131 148 124 132 112 116 154 135 131 112 117 113 130 113 125 130 124 135 126 112 129 119 135 99 115 130 114 110 95 113 136 133 113 126 117 138 108 115 109 128 125 124 113 125 120 105 124 123 124 114 128 125 110 117 132 98 112 122 102 111 116 121 108 97 135 129 123 124 114 142 125 106 106 113 128 120 124 113 111 112 133 106 118 124 114 132 92 126 132 118 118 113 126 108 126 122 121 121 107 108 125 123 105 133 102 137 108 109 130 116 124 126 138 122 130 100 126 116 139 129 134 108 114 105 119 111 101 110 111 134 117 120 98 118 133 132 118 123 126 129 102 114 132 116 139 136 126 116 129 126 126 111 122 116 140 119 118 124 128 126 134 149 125 118 125 134 108 118 117 126 123 141 133 134 122 165 129 112 144 136 139 148 121 141 130 130 147 115 134 138 128 150 140 141 137 149 159 137 140 138 157 137 164 158 159 168 166 176 164 163 146 165 171 197 200 188 185 211 199 189 226 235 242 246 269 230 281 284 290 315 303 354 348 395 377 430 421 455 473 509 510 508 590 600 600 674 602 580 653 639 675 631 646 650 659 679 639 648 663 601 631 613 599 598 625 559 549 594 577 546 485 515 461 456 483 441 449 432 398 425 376 359 403 359 344 306 288 291 285 300 238 268 222 225 245 195 230 209 185 207 202 187 173 182 167 205 184 147 155 196 179 160 142 163 164 147 130 130 138 149 154 139 165 143 135 122 146 154 140 131 147 123 126 143 145 135 124 141 132 120 120 128 142 146 142 142 152 147 168 149 143 138 127 131 145 144 131 136 127 155 140 138 133 136 150 151 143 169 149 158 141 154 154 140 164 154 158 164 183 173 157 144 169 161 161 160 180 198 175 172 207 196 172 198 196 198 221 210 208 192 222 210 205 193 224 248 231 228 230 249 233 185 212 245 221 260 212 275 210 220 239 230 233 241 250 283 289 245 272 248 248 272 268 304 302 270 302 271 297 302 305 287 281 279 282 300 335 281 283 297 291 330 290 298 306 290 325 297 301 324 332 336 337 290 303 311 287 343 313 326 322 318 315 297 296 305 279 281 291 282 257 250 284 296 274 271 277 267 269 237 256 221 281 220 211 230 217 219 213 208 215 231 235 211 200 194 197 199 196 174 190 179 170 217 204 173 176 160 181 180 146 156 160 184 157 161 143 179 156 135 160 152 159 128 139 120 149 141 140 121 154 138 130 147 105 126 133 130 126 147 111 146 129 135 109 140 126 129 128 123 124 104 140 94 128 118 99 125 124 120 114 128 120 130 112 142 116 120 105 133 134 121 121 104 124 110 120 125 105 122 107 110 130 114 120 109 103 121 117 116 119 119 114 131 111 125 127 109 126 123 116 120 107 118 114 117 121 118 114 112 128 137 117 120 114 108 105 94 123 113 109 116 109 98 119 113 125 111 129 120 121 117 117 131 103 105 111 105 110 117 106 114 121 135 109 113 134 95 114 103 112 102 122 113 106 99 114 123 98 114 125 97 124 102 94 125 110 113 118 129 133 118 108 107 119 119 99 126 115 108 107 109 124 105 122 135 117 128 113 99 115 116 113 106 113 108 103 122 105 116 109 114 117 120 103 105 95 116 104 111 124 101 114 119 109 113 115 116 109 126 109 117 108 114 103 103 121 130 95 114 124 123 118 130 99 122 108 118 110 130 124 106 97 113 114 131 113 125 98 102 107 113 113 108 114 128 130 111 134 118 132 117 117 118 121 109 124 109 120 111 109 115 90 109 111 123 110 132 125 115 102 116 116 105 113 119 118 111 115 107 124 101 115 115 127 132 109 97 117 103 87 96 117 115 103 111 113 126 114 111 104 116 112 111 130 120 114 122 111 122 114 109 109 122 124 126 108 134 121 110 121 106 114 118 96 114 122 135 125 131 123 105 111 118 128 137 117 123 101 111 109 114 121 107 118 130 128 131 127 107 136 128 131 107 136 127 131 112 118 123 115 131 115 133 106 136 118 147 144 110 91 132 112 122 124 123 129 129 106 142 141 115 124 141 138 139 109 134 142 128 156 144 158 135 133 146 137 151 109 132 143 123 132 153 129 138 145 153 152 151 185 151 153 147 161 165 146 147 168 139 144 185 188 148 169 152 160 189 163 167 185 209 197 192 179 182 197 205 201 229 238 245 233 264 271 251 267 243 303 306 257 339 336 334 368 397 398 403 454 480 476 508 524 531 568 604 632 703 723 770 789 818 901 898 965 990 1009 1030 1105 1080 1130 1127 1141 1120 1085 1160 1156 1161 1153 1173 1134 1183 1158 1174 1158 1089 1150 1138 1134 1133 1085 1084 1107 1020 1066 1052 1020 1015 989 959 964 870 958 894 899 819 791 811 843 794 741 720 713 700 642 645 615 618 610 544 532 507 469 509 482 451 422 422 407 435 365 429 390 361 332 364 356 323 312 338 305 305 280 301 245 284 247 266 264 247 260 216 220 264 243 223 245 210 196 223 204 206 214 221 203 211 198 205 212 205 249 188 210 223 192 172 181 204 172 214 211 199 197 200 209 182 196 192 197 200 178 185 203 184 188 188 176 211 195 216 193 161 164 187 173 200 157 182 167 178 187 176 172 178 206 191 172 158 145 170 155 161 198 168 175 146 160 167 192 158 159 163 146 126 142 166 160 146 146 142 137 167 142 161 144 140 134 162 151 142 146 132 129 162 137 133 137 152 147 162 165 138 159 134 125 146 136 138 117 131 109 129 121 126 130 131 134 112 120 120 118 125 150 113 130 120 149 130 132 153 123 135 134 132 136 130 129 137 117 141 148 128 129 120 138 134 129 121 111 121 116 149 137 149 137 108 133 141 135 145 143 143 138 139 139 143 145 127 127 126 142 115 145 118 143 101 135 117 130 140 124 119 143 115 138 135 125 120 130 122 112 120 120 118 115 122 115 115 137 123 124 114 106 139 121 138 142 110 137 112 138 126 145 146 140 129 133 142 147 124 114 127 124 129 129 146 139 142 144 128 155 130 120 138 151 125 143 169 137 139 146 156 145 151 152 185 149 161 143 163 147 172 149 148 140 171 164 141 139 161 118 140 125 154 151 143 145 158 163 145 139 140 162 148 112 126 133 148 147 150 142 142 160 141 123 136 149 149 131 127 132 129 119 138 146 128 129 127 152 139 148 148 158 127 138 119 114 142 154 133 138 136 118 129 156 124 124 144 135 133 143 141 138 177 134 167 130 169 146 162 164 152 133 170 166 152 188 159 168 157 161 168 179 161 168 179 197 173 190 181 184 187 199 186 216 182 189 193 210 211 247 240 221 235 209 245 242 246 274 291 291 305 342 315 353 381 358 371 347 387 378 415 420 385 452 460 478 446 497 513 496 538 487 532 564 546 573 552 608 572 568 552 548 599 565 578 578 598 625 609 599 583 569 589 582 584 533 544 570 546 521 522 570 509 480 473 512 487 449 415 491 443 424 436 464 408 422 427 373 402 369 344 357 327 331 358 323 304 301 334 306 319 319 307 310 276 285 310 263 269 257 267 276 284 294 223 243 223 246 234 249 272 243 226 234 266 239 226 256 225 210 231 230 223 239 271 238 280 262 241 233 262 245 251 258 236 231 230 221 214 230 212 212 245 192 235 197 221 184 214 228 196 215 198 186 202 193 191 200 183 185 204 176 170 199 212 172 176 185 193 160 171 150 174 154 158 136 129 144 164 156 151 151 118 136 128 146 146 137 124 158 141 128 133 137 130 142 143 138 128 128 123 123 130 145 135 119 132 134 135 124 143 127 127 135 144 112 124 110 136 152 128 126 141 146 124 128 122 114 134 134 117 119 136 119 113 132 111 132 105 126 140 123 141 133 124 122 147 132 111 160 107 106 129 102 101 112 120 118 126 141 136 112 106 103 102 121 116 120 115 116 124 116 107 120 108 119 142 137 130 137 126 95 130 124 110 116 107 137 120 110 116 126 130 118 134 100 132 127 130 122 110 116 126 121 125 121 97 119 120 115 94 129 130 133 114 116 109 137 99 141 137 132 137 140 121 112 130 143 111 121 133 117 103 109 132 106 121 126 113 121 106 141 145 113 106 97 111 120 127 138 128 127 128 126 133 119 117 138 131 122 119 97 127 130 127 134 106 114 144 121 128 130 125 126 130 121 109 110 120 131 113 124 136 131 129 111 118 106 123 125 137 131 122 121 142 129 139 144 154 125 138 133 149 149 171 128 161 121 160 144 154 154 159 135 166 142 164 152 167 150 130 164 146 135 167 144 166 160 154 162 179 152 153 153 150 162 177 157 184 188 174 177 180 189 201 196 171 172 175 199 162 185 222 201 190 185 198 185 172 180 182 212 211 243 204 207 230 204 201 200 207 208 221 201 223 234 212 213 248 237 211 203 229 240 237 209 209 213 212 207 205 198 217 210 198 203 217 194 204 210 204 194 179 213 164 191 171 181 211 195 172 179 206 188 146 173 173 174 161 177 181 178 152 204 149 163 151 169 141 145 178 152 148 159 112 169 137 129 176 153 155 129 127 159 145 131 141 127 154 128 127 121 131 129 150 128 156 135 147 144 154 149 155 158 143 137 162 139 129 149 123 144 149 161 162 141 146 131 155 155 142 169 133 151 168 178 178 191 173 164 164 162 185 179 198 206 220 191 211 215 214 229 204 238 234 222 275 239 248 257 262 309 290 290 303 288 332 297 327 326 332 309 373 327 372 344 308 377 335 358 373 353 356 356 341 280 337 345 312 309 272 318 353 332 324 323 312 337 304 310 284 305 297 257 246 278 280 276 314 289 270 269 297 269 264 264 231 246 224 225 226 221 207 214 199 200 212 182 187 164 199 181 163 191 189 170 171 162 188 190 170 181 149 136 160 151 150 150 160 143 146 135 141 139 121 141 131 129 144 145 132 137 124 137 145 158 129 143 154 129 127 141 117 115 145 140 120 140 135 141 137 142 155 125 115 125 107 134 126 131 159 122 121 124 145 127 138 141 146 134 145 130 139 154 157 131 130 142 130 133 131 140 134 155 139 124 152 161 133 139 157 175 162 155 136 129 141 162 161 139 132 183 173 183 134 155 157 152 144 180 163 169 153 137 171 162 164 188 169 173 144 166 175 173 138 167 146 135 143 164 152 175 173 152 175 147 180 162 160 159 163 157 149 157 133 137 137 162 164 133 144 151 147 157 135 140 160 164 173 153 147 144 156 157 132 160 155 153 154 152 149 138 145 144 170 135 172 177 169 173 137 160 163 174 149 175 164 191 180 179 180 205 186 172 199 188 214 189 190 210 201 214 187 211 211 225 214 225 235 245 239 240 277 250 263 266 272 256 291 286 341 340 339 381 336 355 375 378 446 438 471 443 492 458 493 507 500 501 507 487 538 524 533 518 514 516 516 550 536 524 523 516 477 482 481 481 471 480 455 492 435 417 433 448 423 484 380 408 410 410 408 410 394 363 373 380 382 349 348 309 303 291 272 319 264 274 283 274 259 231 237 234 205 188 187 220 214 185 193 197 192 178 169 156 180 166 174 164 184 175 162 159 177 160 175 143 170 177 162 150 153 163 168 155 144 138 154 139 195 146 169 158 143 154 136 171 141 154 144 146 146 132 169 174 146 148 167 151 151 142 157 142 162 153 150 164 152 149 152 132 153 166 147 160 151 144 134 143 122 166 127 157 150 143 144 154 148 133 152 148 136 131 133 131 130 162 130 137 124 124 148 111 139 143 132 142 137 112 134 135 130 132 132 129 121 148 113 145 126 106 130 126 120 121 142 122 127 131 118 139 136 139 137 122 137 136 123 108 136 130 142 136 132 154 148 134 159 150 127 158 140 155 143 157 152 153 145 148 154 152 158 147 143 171 162 159 176 170 182 172 185 167 204 182 205 206 190 226 228 246 234 248 244 222 286 284 280 337 327 364 379 388 457 445 473 463 505 547 573 531 627 619 601 638 670 668 645 698 672 645 662 662 729 641 663 640 590 583 571 582 570 562 619 581 568 569 580 546 513 500 481 541 505 557 516 513 477 529 491 473 469 459 448 454 442 430 379 402 338 357 310 308 307 301 291 287 291 244 274 249 222 234 215 211 211 203 188 215 166 210 176 187 192 174 181 175 176 169 170 158 156 147 167 139 157 147 162 140 134 137 144 126 144 139 139 134 138 123 138 144 122 123 152 138 144 145 123 132 120 129 131 129 126 105 120 134 134 136 137 120 108 144 126 129 135 119 131 103 117 129 130 117 126 103 123 127 124 117 117 123 113 106 99 118 127 112 122 117 118 108 114 123 119 127 109 133 107 104 119 95 118 120 117 130 129 137 105 121 132 125 129 131 121 114 131 112 125 114 130 112 139 136 129 128 112 133 129 137 134 128 110 120 112 109 141 128 134 133 150 128 144 126 131 142 125 135 161 128 129 130 161 134 157 156 135 157 160 129 161 130 129 151 140 155 151 133 147 166 152 158 144 154 147 170 169 171 183 180 154 165 152 137 182 170 176 159 185 169 175 175 186 168 150 189 183 157 178 171 201 164 170 170 160 165 153 171 184 162 170 153 166 163 153 164 173 150 162 155 143 150 156 140 168 145 166 137 169 157 149 157 127 148 139 150 141 145 152 163 143 144 155 141 149 138 143 134 124 133 153 146 142 141 132 161 155 135 139 133 143 156 128 149 136 155 160 158 149 148 154 150 149 142 145 203 125 156 201 172 170 149 136 188 157 175 201 192 190 189 190 173 196 194 186 208 205 218 222 216 214 195 230 219 241 257 220 213 272 247 247 262 248 273 261 246 276 287 262 269 249 265 228 274 262 273 296 274 306 287 317 256 270 289 297 267 273 315 298 276 298 257 286 237 308 284 286 307 275 268 289 293 304 259 296 291 268 289 267 248 285 278 247 230 274 227 243 275 249 259 249 257 242 231 247 225 245 241 226 223 232 219 191 225 245 214 250 218 203 205 214 204 205 196 208 221 238 205 216 193 190 207 201 220 207 182 200 199 188 201 181 171 202 175 168 190 174 169 169 169 170 174 154 162 153 149 148 170 151 160 154 150 150 161 155 155 134 162 136 129 147 132 145 139 161 145 147 147 154 164 141 157 147 140 166 126 140 162 163 169 138 134 131 153 142 132 147 142 129 159 145 120 138 144 152 145 142 127 118 137 132 129 133 127 111 139 122 139 134 133 127 137 111 121 142 124 135 124 133 140 129 113 132 131 130 148 115 122 153 121 120 126 141 152 124 115 138 133 132 126 114 116 135 138 138 131 117 114 123 131 127 151 134 119 121 126 135 140 141 161 123 118 141 131 142 120 142 106 127 126 140 129 130 140 120 133 105 123 140 128 127 131 113 134 118 119 135 134 113 124 144 122 123 123 131 137 119 108 140 127 117 121 112 136 88 112 152 113 125 120 133 118 123 119 114 135 145 114 129 117 131 119 105 125 126 124 137 107 120 130 131 113 123 129 118 125 128 120 108 132 101 112 126 110 139 113 119 107 130 118 122 145 123 119 113 122 114 116 114 118 126 114 106 111 109 121 81 109 102 101 124 124 117 111 132 98 107 100 101 111 107 111 96 116 114 116 117 111 108 107 109 112 102 115 98 105 102 128 100 92 107 111 99 120 116 130 116 122 111 96 98 126 135 126 113 103 95 107 102 104 114 123 100 130 125 94 105 101 119 107 124 113 116 114 99 114 101 113 111 118 104 124 125 120 103 116 113 132 111 128 129 118 120 115 115 114 94 118 111 96 111 130 108 130 110 99 90 99 127 113 108 112 114 118 118 114 117 125 116 130 107 98 106 107 112 115 113 129 131 123 117 133 95 86 119 116 115 121 92 105 106 125 110 133 114 140 119 103 132 129 136 104 107 118 116 115 107 127 111 120 118 119 115 120 113 141 126 118 136 118 139 133 136 120 119 125 123 105 151 127 117 132 107 142 110 150 157 160 144 132 146 130 161 140 150 140 140 136 168 137 160 123 164 157 161 157 151 170 153 165 168 196 175 180 175 187 186 199 191 192 205 194 182 215 200 199 224 231 232 215 219 223 215 213 220 285 227 240 258 245 261 275 263 280 263 271 262 265 245 243 250 256 275 277 249 270 286 268 258 297 303 287 282 284 281 280 276 284 297 285 269 273 275 276 285 279 289 282 267 271 280 270 284 240 300 285 258 271 277 270 261 264 237 262 235 259 280 240 264 275 269 226 227 240 238 224 258 209 229 244 223 249 240 238 220 240 268 249 237 222 243 223 203 241 245 228 221 205 207 225 238 228 239 242 257 231 215 228 245 232 235 243 222 225 243 268 235 235 258 221 250 230 245 213 235 219 243 239 210 230 238 259 266 195 220 223 230 217 212 214 261 264 202 247 209 226 220 202 216 205 214 213 204 203 202 209 196 188 207 199 232 185 210 233 230 188 209 214 203 204 218 192 194 188 192 198 188 185 170 164 196 191 186 194 181 180 188 170 150 190 154 167 188 166 174 154 160 154 179 161 150 151 166 146 172 168 138 155 152 163 163 121 144 178 127 141 137 133 150 157 145 151 156 153 135 130 144 131 116 134 140 120 132 124 124 120 119 152 117 136 129 122 148 106 150 125 125 117 127 143 131 119 127 129 129 119 127 140 118 111 120 154 128 129 118 103 130 141 127 124 118 120 113 134 119 133 134 112 125 124 106 119 124 109 124 123 110 115</intensities>
			</dataPoints>
		</scan>
	</xrdMeasurement>
</xrdMeasurements>
