<?xml version="1.0" encoding="UTF-8"?>
<xrdMeasurements xmlns="http://www.xrdml.com/XRDMeasurement/1.7" xmlns:xsi="http://www.w3.org/2001/XMLSchema-instance" xsi:schemaLocation="http://www.xrdml.com/XRDMeasurement/1.7 http://www.xrdml.com/XRDMeasurement/1.7/XRDMeasurement.xsd" status="Completed">
	<comment>
		<entry>Configuration=Conf. Reflection-transmission spinner, Owner=User-1, Creation date=2/28/2018 8:43:02 AM</entry>
		<entry>Goniometer=Theta/Theta; Minimum step size 2Theta:0.0001; Minimum step size Omega:0.0001</entry>
		<entry>Sample stage=Reflection-transmission spinner; Minimum step size Phi:0.1</entry>
		<entry>Diffractometer system=EMPYREAN</entry>
		<entry>Measurement program=C:\PANalytical\Data Collector\Programs\sample-1.xrdmp, Identifier={BB6687EE-8248-4E06-B0C7-67735DEB5D7E}</entry>
		<entry>Batch program=C:\PANalytical\Data Collector\Programs\P3.xrdmp, Identifier={110013A4-273B-4C82-A4D1-871885B7687B}</entry>
	</comment>
	<sample type="To be analyzed">
		<id></id>
		<name></name>
		<preparedBy></preparedBy>
	</sample>
	<xrdMeasurement measurementType="Scan" status="Completed" sampleMode="Reflection">
		<comment>
			<entry>PHD Lower Level = 4.02 (keV), PHD Upper Level = 11.27 (keV)</entry>
		</comment>
		<usedWavelength intended="K-Alpha 1">
			<kAlpha1 unit="Angstrom">1.5405980</kAlpha1>
			<kAlpha2 unit="Angstrom">1.5444260</kAlpha2>
			<kBeta unit="Angstrom">1.3922500</kBeta>
			<ratioKAlpha2KAlpha1>0.5000</ratioKAlpha2KAlpha1>
		</usedWavelength>
		<incidentBeamPath>
			<radius unit="mm">240.00</radius>
			<xRayTube id="1010048" name="Empyrean Cu LFF HR (9430 033 7310x) DK427586">
				<tension unit="kV">40.0</tension>
				<current unit="mA">40.0</current>
				<anodeMaterial>Cu</anodeMaterial>
				<focus type="Line">
					<length unit="mm">12.0</length>
					<width unit="mm">0.4</width>
					<takeOffAngle unit="deg">4.4</takeOffAngle>
				</focus>
			</xRayTube>
			<xRayMirror id="27020009" name="Bragg-Brentano HD" hybrid="false">
				<crystal type="Graded" shape="Flat">BB/HD</crystal>
				<acceptanceAngle unit="deg">0.800</acceptanceAngle>
				<length unit="mm">55.3</length>
			</xRayMirror>
			<sollerSlit id="21010002" name="Soller slits 0.04 rad.">
				<opening unit="rad">0.0400</opening>
			</sollerSlit>
			<mask id="22030009" name="Fixed mask 10 mm">
				<width unit="mm">10.00</width>
			</mask>
			<antiScatterSlit id="22010003" name="Fixed slit 1°" xsi:type="fixedAntiScatterSlitType">
				<height unit="mm">1.52</height>
			</antiScatterSlit>
			<divergenceSlit id="22010005" name="Fixed slit 1/4°" xsi:type="fixedDivergenceSlitType">
				<distanceToSample unit="mm">140.00</distanceToSample>
				<height unit="mm">0.38</height>
			</divergenceSlit>
		</incidentBeamPath>
		<diffractedBeamPath>
			<radius unit="mm">240.00</radius>
			<antiScatterSlit id="22090010" name="AS slit 8.0 mm (PIXcel)" xsi:type="fixedAntiScatterSlitType">
				<height unit="mm">8.00</height>
			</antiScatterSlit>
			<sollerSlit id="21020003" name="Large Soller slits 0.04 rad.">
				<opening unit="rad">0.0400</opening>
			</sollerSlit>
			<detector id="7010019" name="PIXcel1D-Medipix3 detector" xsi:type="rtmsDetectorType">
				<phd unit="%">
					<lowerLevel>25.0</lowerLevel>
					<upperLevel>70.0</upperLevel>
				</phd>
				<mode>Scanning</mode>
				<activeLength unit="deg">3.3482</activeLength>
			</detector>
		</diffractedBeamPath>
		<scan appendNumber="0" mode="Continuous" scanAxis="Gonio" status="Completed">
			<header>
				<startTimeStamp>2025-12-28T16:57:49+08:00</startTimeStamp>
				<endTimeStamp>2025-12-28T17:09:21+08:00</endTimeStamp>
				<author>
					<name>User</name>
				</author>
				<source>
					<applicationSoftware version="5.5a">Data Collector</applicationSoftware>
					<instrumentControlSoftware version="7.9j 20171025">EMPYREAN</instrumentControlSoftware>
					<instrumentID>0000000011214615</instrumentID>
				</source>
			</header>
			<dataPoints>
				<positions axis="2Theta" unit="deg">
					<startPosition>6.00558257</startPosition>
					<endPosition>75.99655438</endPosition>
				</positions>
				<positions axis="Omega" unit="deg">
					<startPosition>3.00279129</startPosition>
					<endPosition>37.99827719</endPosition>
				</positions>
				<positions axis="Phi" unit="deg">
					<commonPosition>0.0</commonPosition>
				</positions>
				<commonCountingTime unit="seconds">13.770</commonCountingTime>
				<intensities unit="counts">515 552 585 550 538 539 529 509 545 489 565 544 529 554 514 553 507 513 501 514 515 550 531 517 537 527 519 534 504 504 465 538 561 481 549 555 462 545 539 536 472 514 527 512 503 566 536 512 522 518 510 523 525 508 559 487 474 520 505 516 475 522 518 484 479 520 525 504 482 491 540 489 528 530 510 508 516 495 489 467 534 529 508 529 515 550 493 497 504 546 496 517 511 487 514 510 475 505 472 500 535 466 504 502 468 470 535 478 505 499 456 525 532 491 480 490 486 536 461 513 499 462 470 503 448 441 514 510 473 485 486 486 493 467 538 476 484 510 532 485 487 479 442 475 491 466 507 491 457 457 485 492 459 477 475 528 487 517 470 482 483 511 474 518 484 452 482 475 472 490 483 489 460 503 506 462 504 456 477 471 435 481 504 468 474 470 456 484 519 463 510 501 448 490 522 476 468 458 523 459 482 461 446 450 463 475 444 450 454 458 489 457 499 481 497 495 440 450 503 483 454 502 449 415 467 458 526 408 470 498 459 488 427 461 472 484 434 471 484 463 444 440 466 492 455 423 461 434 480 437 454 450 462 459 431 472 479 470 430 430 465 500 452 467 468 490 469 475 453 405 460 435 455 433 440 464 475 458 475 446 490 409 495 435 462 417 434 454 466 428 492 442 432 444 465 422 470 485 442 449 471 460 423 455 446 478 458 458 465 435 460 466 447 464 469 447 441 475 448 461 455 456 488 489 410 443 441 491 406 457 437 439 414 438 446 422 407 419 441 432 468 429 421 430 449 416 450 450 385 446 464 450 449 443 461 429 429 438 462 429 419 475 437 418 423 441 441 433 470 451 464 426 433 415 451 410 463 437 427 422 426 427 472 432 447 468 448 428 451 452 452 392 456 444 415 437 422 401 467 439 435 426 429 441 412 409 419 428 445 408 449 419 395 442 431 448 409 448 464 435 428 456 410 457 439 403 450 432 429 428 445 417 481 434 421 445 453 434 422 395 443 408 436 482 440 403 420 407 478 449 419 445 424 439 428 409 447 424 417 425 445 411 402 401 448 420 425 411 431 412 408 425 427 407 422 441 390 436 448 409 420 440 461 447 402 481 400 412 424 458 382 414 407 447 419 424 441 416 450 419 394 432 361 377 434 402 442 381 421 420 413 413 405 413 410 417 433 429 403 435 422 419 429 419 372 393 424 426 409 396 387 383 439 411 400 468 409 427 426 440 398 419 372 406 411 410 400 361 423 386 443 366 365 414 392 403 422 400 393 380 445 403 376 407 399 384 393 436 391 449 407 431 416 392 423 439 391 420 411 394 398 373 392 389 371 411 416 435 407 397 444 398 453 397 417 455 396 407 408 431 411 409 404 403 405 427 447 428 445 393 399 393 378 425 413 424 380 413 430 390 394 412 408 437 403 401 437 389 361 377 368 390 397 432 363 373 406 366 394 447 395 429 376 373 409 360 408 412 355 389 382 402 387 422 413 369 371 393 380 381 420 365 352 364 427 381 396 385 374 402 366 394 383 391 398 377 426 439 425 415 397 411 387 401 416 399 404 376 375 384 357 348 447 383 381 396 377 423 385 393 416 395 418 418 392 422 391 397 425 360 364 386 416 396 395 380 384 365 417 390 394 413 381 399 383 388 398 400 351 406 363 385 378 378 410 367 377 381 369 371 360 371 417 379 374 413 374 366 369 393 378 382 393 408 381 379 390 388 391 401 355 381 344 394 384 385 379 374 382 404 412 356 404 402 377 355 410 396 383 387 368 370 414 378 320 389 392 378 377 386 372 365 349 380 365 381 362 361 398 367 375 408 380 363 384 400 407 406 379 372 411 398 387 368 399 366 370 371 338 368 402 405 375 391 366 415 345 376 365 349 360 370 379 371 374 378 362 359 386 401 409 365 369 366 358 397 346 375 350 378 374 357 370 351 344 379 373 370 396 398 355 328 340 391 342 362 392 368 373 348 349 328 372 349 353 377 376 382 372 361 359 369 384 351 368 405 343 344 367 383 369 363 367 408 349 379 342 305 380 375 348 380 342 358 355 352 350 373 375 345 381 359 378 336 381 340 373 357 341 371 371 372 350 354 355 360 389 362 371 374 353 317 379 350 370 388 322 362 403 353 339 364 376 369 355 345 373 349 343 365 377 322 349 334 359 397 365 375 341 357 364 352 374 379 344 371 343 357 364 366 355 345 349 319 334 341 311 402 354 357 342 325 351 340 352 280 336 334 327 349 336 339 331 352 354 338 343 381 358 329 345 344 337 329 340 339 392 332 346 379 353 379 359 361 352 356 359 367 340 340 330 335 308 320 323 336 328 387 325 316 359 351 337 348 354 359 334 316 371 352 338 345 380 354 310 355 356 322 337 326 345 334 341 339 294 356 320 313 352 376 359 327 333 341 347 311 326 343 362 351 342 321 351 350 358 351 341 350 329 330 332 311 352 347 342 339 318 309 321 335 345 331 367 348 336 342 321 347 330 348 365 339 338 348 341 327 340 325 321 315 343 347 343 350 353 322 329 331 350 326 356 300 356 318 316 370 335 361 321 373 374 336 321 331 341 328 320 347 338 315 344 337 349 334 313 355 311 320 327 339 324 331 313 331 305 350 317 327 303 292 311 320 319 322 337 333 329 338 341 343 320 360 324 322 325 362 328 325 315 342 336 326 316 323 315 315 314 341 307 282 296 337 337 344 294 317 329 320 322 298 317 290 361 268 325 357 301 340 321 300 321 332 341 323 328 305 317 335 314 322 300 328 333 338 344 306 275 326 292 314 343 304 347 314 293 318 362 316 320 316 291 309 344 294 330 315 311 337 323 335 298 335 316 304 342 283 318 285 302 326 343 344 282 309 308 262 324 315 304 283 322 324 311 316 310 326 295 308 310 331 308 326 339 329 326 319 311 316 343 302 278 262 326 316 302 316 322 318 323 308 324 313 330 319 301 328 324 310 322 316 358 304 320 301 297 322 286 306 286 326 314 294 339 325 294 337 310 311 329 310 296 301 329 292 310 296 284 330 334 302 316 320 331 329 333 301 306 297 320 280 323 302 337 290 340 300 317 307 318 301 293 299 308 305 326 336 319 328 303 298 334 302 330 318 319 293 290 305 341 307 298 319 338 323 319 312 316 304 288 297 299 334 323 302 289 289 305 342 335 315 319 305 300 305 304 316 304 290 287 308 298 343 308 319 295 335 317 297 302 317 261 300 305 295 309 320 286 303 261 301 312 297 314 284 269 324 286 324 292 310 278 314 287 326 291 267 333 303 285 310 285 308 349 317 296 287 277 322 324 340 340 314 297 312 319 329 312 311 297 344 276 291 287 289 313 301 335 315 305 296 328 285 317 294 318 325 304 313 279 309 280 283 334 328 290 321 297 315 336 318 267 301 313 301 291 304 284 246 293 317 290 300 327 292 279 289 275 325 299 305 295 301 328 275 295 314 307 306 287 294 284 289 336 310 297 298 344 307 309 334 304 290 284 268 315 310 293 302 306 317 293 311 288 319 307 349 321 312 291 277 295 291 325 335 306 316 277 290 339 327 303 299 322 312 322 293 296 288 311 288 316 303 289 298 298 322 326 277 306 307 281 328 315 315 304 292 297 294 316 313 286 295 304 323 306 322 338 297 302 306 314 331 322 311 330 278 294 322 280 306 280 324 291 307 308 299 318 325 306 285 323 295 345 331 285 248 295 297 311 287 300 292 314 323 297 313 287 312 321 283 288 327 265 320 274 282 328 288 316 284 272 312 304 326 289 309 286 290 304 312 298 304 308 305 287 278 294 321 299 272 290 330 300 296 308 316 308 312 326 308 310 301 289 306 314 339 301 273 317 301 270 270 309 274 315 296 329 288 303 330 316 324 299 293 322 318 299 324 267 267 355 320 302 303 295 287 314 338 313 334 302 274 301 333 279 313 300 320 292 298 336 315 268 280 324 308 324 289 298 311 305 314 291 290 278 315 274 311 296 309 241 292 296 307 297 320 305 314 300 341 276 298 328 283 277 300 309 360 313 298 304 306 315 288 312 328 289 300 331 301 267 294 329 307 292 308 327 302 304 318 313 288 320 339 293 303 297 322 311 299 284 318 317 295 326 297 321 299 345 324 270 315 318 331 291 310 318 331 328 304 288 314 302 299 295 340 300 303 272 307 314 342 299 317 294 296 304 309 280 299 331 320 326 292 296 308 315 301 310 308 332 333 330 323 296 316 293 303 289 324 306 302 303 287 287 305 300 324 279 287 310 326 274 318 297 311 292 338 277 333 348 331 307 333 297 303 325 313 304 327 312 307 317 340 303 305 314 346 317 299 313 351 320 321 329 307 321 347 325 339 308 295 352 338 302 315 310 301 316 332 321 342 324 288 323 321 321 315 335 318 326 320 329 307 320 338 306 306 319 327 292 341 329 309 350 328 317 309 338 320 364 340 316 344 316 316 317 311 327 346 328 315 298 347 331 324 330 307 328 326 318 346 315 340 331 347 330 334 331 309 302 306 345 366 323 338 326 315 291 345 321 351 318 288 341 341 320 329 327 291 325 310 349 343 323 338 295 325 321 335 314 338 317 341 305 327 312 338 317 362 321 345 323 332 390 314 288 313 343 314 330 349 315 333 343 332 326 302 305 365 318 362 319 301 334 334 363 332 311 323 305 334 336 331 355 326 332 334 342 318 323 288 314 287 322 357 313 305 340 346 347 342 345 329 322 380 349 333 366 296 330 326 321 314 331 321 316 331 289 341 304 343 374 306 341 317 336 347 340 365 311 333 322 338 329 343 339 338 343 319 307 345 306 307 320 335 319 303 362 307 358 352 324 315 338 339 319 303 291 332 334 324 314 339 325 346 342 334 346 304 351 335 359 345 319 334 355 371 332 370 318 331 312 355 346 306 336 328 303 316 378 347 344 395 349 326 326 373 333 373 345 358 337 360 352 339 306 341 364 306 325 340 330 355 323 351 318 384 357 335 352 352 359 347 322 305 356 350 337 346 360 364 352 345 348 339 351 288 329 320 340 346 315 334 314 344 308 352 326 328 319 327 338 382 343 334 358 336 314 331 352 323 338 325 369 355 314 341 355 340 335 325 305 340 336 333 312 337 309 312 324 350 353 325 354 326 340 331 339 326 343 324 325 303 358 310 335 310 345 321 340 334 321 371 349 301 336 314 352 375 353 325 313 327 361 329 339 344 335 309 319 338 357 353 320 330 325 334 336 317 356 326 357 291 367 319 320 337 359 349 337 329 307 297 338 334 348 357 322 359 319 330 332 333 315 307 336 317 333 318 337 349 341 338 339 361 305 315 353 339 323 359 326 291 358 322 334 338 345 358 332 349 360 349 359 333 326 364 318 334 333 329 310 363 320 318 351 328 337 316 327 318 322 316 355 331 348 339 327 323 324 345 332 378 321 349 335 356 306 338 316 336 291 337 330 306 339 338 355 330 377 352 322 356 316 323 336 345 320 363 342 305 320 332 347 368 322 345 358 309 366 341 361 332 384 322 354 338 358 344 315 349 337 338 315 332 350 318 326 327 328 322 355 353 357 308 319 369 332 323 334 331 322 336 339 352 339 343 329 318 331 355 361 348 337 311 320 346 339 304 326 334 343 352 318 366 308 349 332 327 373 354 379 327 320 369 341 328 343 286 325 366 356 320 348 352 352 363 328 323 328 328 306 322 361 318 323 336 332 337 323 326 327 330 330 359 327 312 308 338 341 350 332 329 322 336 323 316 315 321 325 328 313 353 343 328 346 337 320 321 348 360 309 329 351 340 343 369 349 352 312 338 347 336 340 310 344 338 313 356 309 357 360 358 345 319 312 311 326 345 352 319 342 352 342 340 353 337 344 363 325 291 346 345 332 339 324 348 313 354 351 348 280 336 301 322 295 346 345 307 336 327 315 304 324 292 301 340 322 329 337 312 326 325 347 320 323 329 327 337 289 292 302 340 327 309 346 337 295 296 323 303 331 294 326 310 307 338 335 336 301 318 355 327 310 344 315 326 332 318 338 318 343 335 326 334 325 352 332 322 327 296 356 316 313 300 330 328 358 297 345 315 339 333 326 346 334 321 304 309 308 314 341 317 337 319 342 324 314 328 332 341 335 316 319 341 327 311 309 331 310 292 311 330 295 321 307 305 296 329 328 323 312 327 346 334 328 359 341 356 314 330 335 316 349 320 322 315 318 333 316 322 299 281 289 312 329 333 334 311 313 299 334 307 337 341 339 323 324 295 305 313 310 297 332 285 332 330 302 300 309 347 360 303 317 316 332 281 298 313 327 319 357 336 334 320 326 302 328 293 308 297 306 321 291 330 293 309 295 316 289 320 317 303 321 349 304 312 342 319 311 325 321 328 324 298 328 297 322 304 317 284 364 310 317 333 309 313 318 325 354 308 299 313 334 294 305 320 318 359 313 311 319 316 318 322 312 279 310 331 309 312 322 329 291 330 313 322 306 298 276 326 288 295 338 342 322 296 345 306 322 288 312 317 314 297 309 332 349 290 322 300 296 295 302 319 312 316 307 275 332 338 312 323 339 296 324 288 331 301 304 338 298 296 284 323 301 304 291 293 321 328 321 283 337 323 311 316 317 278 303 325 320 290 304 312 297 302 296 313 307 336 284 324 286 309 320 317 307 332 304 311 328 333 300 325 303 327 347 314 337 309 288 322 320 307 302 298 325 346 329 297 335 314 354 323 340 341 320 302 290 303 334 302 293 333 302 310 325 323 316 314 305 350 345 303 321 345 355 319 297 324 306 322 308 315 310 304 307 346 329 318 311 310 295 312 299 305 335 296 300 311 303 307 315 327 323 314 283 313 272 292 307 299 327 312 297 284 308 305 305 327 308 320 268 293 288 301 300 305 320 301 280 280 322 323 275 285 278 324 267 308 276 312 272 275 300 289 294 339 294 284 270 305 319 309 299 293 336 287 310 307 335 314 296 332 278 291 282 311 286 284 289 298 330 293 316 293 315 326 326 334 304 275 318 298 298 309 273 278 313 333 288 296 303 321 282 324 299 287 257 278 304 288 293 299 297 345 321 310 296 308 321 324 324 309 303 279 303 275 273 330 287 314 310 296 294 276 306 305 307 284 289 295 275 296 314 312 285 280 277 321 280 270 272 274 263 267 307 286 326 264 283 275 315 283 304 286 242 275 285 293 290 286 304 319 315 293 308 271 308 299 288 289 283 325 259 317 260 313 319 290 337 301 288 308 282 304 295 291 262 316 275 313 284 263 318 296 288 301 303 296 290 319 300 284 274 318 305 281 288 275 256 262 268 308 262 309 294 257 294 288 306 259 269 305 282 303 272 303 297 307 269 291 290 316 276 294 284 277 298 320 299 313 321 296 268 296 292 271 315 281 285 277 282 305 256 284 317 290 262 288 285 277 306 266 315 287 314 302 314 297 325 305 232 317 271 304 269 302 266 317 311 304 293 293 293 268 267 308 299 316 296 294 297 313 315 292 305 303 299 261 272 268 277 288 289 286 272 287 308 267 335 327 280 292 268 280 288 301 302 303 274 317 274 276 292 296 285 279 330 283 317 294 275 309 282 315 303 307 284 297 286 290 303 275 323 305 277 271 297 291 281 294 312 307 276 276 300 311 311 319 324 288 309 310 322 261 298 326 282 278 277 333 258 292 296 259 290 260 281 259 298 303 309 323 270 261 292 288 278 319 290 300 268 265 275 286 298 295 266 296 306 268 320 282 296 283 300 273 264 313 275 284 308 238 339 269 270 317 302 299 298 326 316 279 287 268 292 291 300 283 281 273 284 272 298 318 304 292 274 291 274 264 281 291 286 307 280 278 281 311 312 317 277 261 300 283 280 271 312 303 299 297 288 249 272 299 293 293 300 249 288 283 310 265 272 283 307 294 259 289 275 284 284 271 272 295 272 267 271 281 278 273 294 278 296 277 264 295 273 314 283 307 303 288 302 280 291 291 277 283 292 291 288 309 284 285 321 314 287 319 280 244 294 272 301 278 291 290 295 290 269 297 310 268 295 315 274 280 270 292 265 321 275 302 331 264 298 309 242 262 310 276 298 290 261 278 289 329 288 290 310 325 288 276 314 277 276 301 287 274 279 292 263 276 310 275 278 273 295 306 267 292 302 294 298 277 269 289 271 279 303 310 270 300 286 284 285 261 271 299 309 263 302 318 295 297 331 324 277 297 236 277 300 278 301 279 283 327 286 302 310 290 279 290 304 313 317 286 266 283 312 300 289 296 321 266 301 279 275 280 315 290 298 299 291 297 267 343 282 287 297 276 282 312 295 288 277 235 309 290 295 294 280 319 307 270 329 284 290 297 300 285 296 279 270 284 291 314 274 328 292 268 283 276 298 316 304 301 295 286 289 308 319 288 270 290 291 286 313 298 293 297 291 309 308 321 279 269 304 283 302 303 285 299 279 287 310 304 302 288 278 328 290 305 311 284 311 298 292 277 287 289 309 288 301 298 303 290 278 282 280 264 275 282 287 293 305 305 296 295 297 312 280 320 284 338 288 303 274 278 294 267 305 290 273 266 319 269 298 293 284 309 287 298 273 317 270 318 286 281 301 309 313 279 306 286 286 282 297 292 312 305 308 314 291 323 297 296 324 306 292 291 310 286 310 263 310 305 287 307 293 292 284 315 285 293 285 290 297 288 277 323 307 305 291 276 323 312 299 311 311 298 307 288 321 287 322 295 319 316 308 313 280 300 293 302 320 307 289 249 304 305 276 308 306 266 296 334 315 285 306 308 310 324 321 319 269 331 286 335 306 306 312 292 319 314 330 260 324 311 295 310 304 310 310 286 313 323 291 305 313 280 312 309 315 298 327 297 318 314 324 295 318 300 297 290 266 314 323 292 302 304 291 273 292 282 290 331 265 279 310 288 287 299 355 315 337 301 291 322 309 288 296 285 313 292 313 301 304 269 303 317 289 269 296 332 323 285 323 324 292 302 290 314 320 279 315 307 313 298 290 276 323 302 324 318 308 335 293 306 325 297 315 285 288 329 311 303 307 298 313 275 285 329 323 290 320 289 324 303 309 324 281 307 307 312 300 299 344 302 299 279 267 336 332 323 313 305 309 305 275 286 290 309 307 316 333 291 288 311 334 297 301 267 308 314 291 310 339 343 334 291 308 314 293 343 307 293 297 299 284 308 291 328 266 325 311 306 280 305 276 292 322 277 338 282 287 306 304 273 288 317 298 317 287 306 303 345 310 343 335 285 327 318 319 288 317 295 300 283 298 298 319 302 315 320 325 297 297 291 314 332 321 315 310 302 294 302 289 306 320 288 282 308 316 262 307 317 313 296 288 330 308 281 305 295 272 296 290 318 304 303 303 313 291 298 309 303 303 272 282 319 311 309 316 278 294 300 300 302 273 305 304 304 283 277 305 305 317 297 268 270 308 275 270 277 260 290 308 305 277 297 331 306 317 286 344 288 307 283 232 280 287 312 282 299 277 300 295 288 286 280 275 285 292 306 293 300 297 288 290 308 299 303 295 280 291 259 277 280 305 262 301 280 308 259 289 299 309 273 267 286 290 286 286 250 300 307 311 310 306 276 295 275 316 287 281 271 260 301 281 294 278 275 301 295 293 295 286 298 284 304 251 282 297 304 302 292 273 317 280 283 285 300 324 307 299 275 273 256 299 276 313 319 299 307 305 295 305 327 291 324 305 283 284 297 288 313 304 277 276 285 274 333 285 314 288 289 272 249 312 289 277 298 310 295 294 275 321 288 311 231 332 289 283 288 263 280 281 294 327 295 318 288 295 290 330 345 264 289 287 256 301 299 304 294 250 263 276 304 291 274 285 317 300 280 249 303 286 266 298 288 290 278 280 264 287 311 300 295 278 305 327 303 300 259 277 296 284 311 312 299 286 305 328 291 297 301 320 310 282 298 300 312 308 303 329 304 302 305 312 323 286 289 319 270 279 289 323 315 297 323 295 293 301 352 295 284 299 305 282 303 297 334 279 312 322 312 279 313 359 305 289 306 306 293 331 353 284 322 311 302 311 316 322 350 328 332 311 307 348 324 346 327 317 330 286 287 313 297 301 306 308 323 285 290 329 312 324 339 365 331 275 311 340 287 301 327 292 326 292 310 274 334 297 316 313 342 328 297 334 335 285 304 317 318 314 318 312 350 315 328 296 312 347 297 300 344 306 287 314 293 294 272 327 327 319 322 333 270 314 342 323 307 326 317 331 336 270 301 307 331 328 320 320 306 339 311 299 306 310 302 300 334 324 333 295 305 301 309 327 284 288 281 296 300 299 320 264 282 317 303 351 310 319 325 324 284 296 316 277 307 338 332 290 324 323 286 310 302 331 315 304 330 304 294 323 311 296 301 346 321 324 313 281 322 312 320 338 311 331 344 327 331 325 306 322 322 275 319 296 319 282 279 308 318 337 337 295 349 350 338 317 304 330 352 312 330 291 316 291 311 306 319 323 320 313 325 346 312 319 309 357 333 323 319 320 310 296 305 329 316 354 326 304 317 359 345 320 338 344 325 313 317 289 317 331 334 316 334 317 337 320 326 330 340 336 319 298 305 312 346 347 327 343 329 338 350 322 343 301 331 348 327 312 321 343 342 323 313 314 321 307 316 334 342 369 355 314 350 338 336 286 300 329 344 338 354 342 372 312 340 329 336 301 329 293 322 365 353 362 325 328 326 338 333 288 326 333 337 342 321 332 310 329 357 352 335 359 364 306 327 310 326 302 363 320 348 349 331 357 335 345 344 316 362 329 353 334 325 356 351 333 345 359 334 337 359 324 348 326 297 339 343 358 329 345 355 370 395 368 366 345 357 367 352 373 299 333 326 347 320 321 326 305 328 345 346 337 292 351 364 342 343 361 340 343 352 354 354 360 336 351 359 366 327 347 323 340 328 318 355 351 345 364 351 390 313 401 337 352 353 340 351 332 328 327 364 357 342 365 288 332 326 321 328 354 366 341 322 315 328 332 299 330 334 297 301 322 351 319 350 325 310 310 319 310 312 311 310 307 336 298 299 287 308 268 310 293 310 338 298 310 312 292 297 250 313 325 286 330 284 323 308 297 297 290 291 292 333 323 257 311 323 261 316 313 300 310 336 298 285 302 316 311 322 310 297 276 318 306 299 272 310 286 284 275 278 265 279 299 285 291 310 335 281 260 310 320 304 292 310 289 263 310 308 280 280 281 287 299 269 275 278 271 265 278 285 236 301 289 283 291 281 261 292 276 242 291 285 251 248 245 272 257 291 259 287 278 275 278 282 259 291 269 305 246 266 286 268 270 276 239 243 265 286 278 271 286 285 246 270 273 285 234 240 282 236 282 260 260 280 267 279 284 277 237 297 274 270 273 238 266 261 269 248 269 274 299 259 260 250 269 270 265 250 277 276 279 269 236 291 305 268 244 296 278 259 249 258 246 284 286 301 263 250 274 291 275 282 279 261 280 284 280 280 275 285 269 285 278 285 294 281 275 247 295 266 267 289 284 286 313 277 268 269 276 292 285 277 275 266 264 288 263 303 290 277 295 282 272 268 263 243 273 271 263 280 282 297 262 257 283 285 278 306 274 286 293 270 292 285 296 266 293 289 274 286 243 264 256 259 286 272 300 239 276 275 229 272 265 259 274 259 297 286 237 283 289 289 288 281 239 285 268 304 259 272 257 291 285 298 244 285 246 281 258 296 260 242 291 239 294 304 238 259 249 246 267 249 267 262 271 278 279 261 292 267 222 227 270 261 258 295 267 228 260 225 277 245 205 232 228 260 241 259 241 250 227 266 258 200 268 261 250 242 235 249 236 261 246 231 244 271 226 262 216 231 218 220 223 238 229 220 256 266 240 220 249 245 247 224 225 250 238 264 227 214 250 231 227 239 244 213 244 274 228 224 232 257 213 226 226 258 239 251 237 246 243 219 240 248 238 223 235 257 251 203 248 242 202 223 222 248 215 227 212 230 257 231 217 247 211 258 236 218 247 209 194 238 210 236 231 225 249 223 217 244 218 209 234 227 251 178 210 236 231 217 208 221 220 232 237 217 219 229 193 208 227 222 222 224 241 216 205 194 206 219 264 241 198 205 240 227 242 197 202 216 219 213 203 237 193 222 228 202 205 228 216 209 213 222 231 231 230 213 256 201 226 213 220 237 227 217 202 234 219 212 222 224 246 206 233 206 234 244 218 194 204 192 235 211 220 245 211 234 195 217 221 256 215 224 205 204 189 211 220 226 225 221 227 209 217 195 231 204 216 212 194 210 231 205 213 226 206 227 217 224 214 213 211 235 204 201 213 223 197 220 209 203 219 207 218 218 200 202 205 214 234 206 216 261 192 234 223 192 226 210 211 204 237 212 194 211 199 222 210 193 217 196 209 208 204 198 179 208 225 222 201 229 204 236 181 203 205 221 229 191 220 186 175 219 216 176 199 203 206 212 198 208 185 200 198 220 209 222 204 216 214 208 220 233 187 221 201 225 196 201 206 208 193 214 197 223 213 220 190 202 218 197 196 216 196 188 203 212 188 208 198 189 210 221 186 212 185 202 202 185 209 187 229 206 217 222 228 192 194 198 206 207 199 208 215 216 185 185 206 181 218 223 195 180 209 191 218 199 202 213 222 178 217 200 194 174 168 200 224 210 202 200 215 227 192 204 203 213 200 215 215 224 222 197 225 183 233 219 216 219 214 235 240 221 221 224 185 209 216 207 221 224 198 207 235 210 210 230 235 191 203 212 206 218 214 217 224 201 213 223 218 218 195 221 218 226 225 196 203 178 177 213 205 223 209 235 196 213 238 251 234 226 224 237 203 220 222 212 219 268 231 225 220 230 238 213 218 218 239 207 240 220 250 225 236 243 260 199 212 204 248 258 231 240 242 221 234 211 224 214 263 256 230 200 202 204 212 224 207 186 232 214 221 200 211 229 225 251 228 202 213 212 228 230 236 217 219 216 219 217 227 204 227 201 228 231 197 208 216 219 213 202 220 204 224 230 264 228 218 204 212 207 219 234 197 212 217 225 222 245 204 229 209 209 225 248 242 230 238 219 221 245 231 224 223 237 214 184 216 218 232 222 217 216 233 234 232 234 197 238 243 228 230 196 233 228 217 205 210 215 241 208 217 228 228 223 198 214 238 236 244 217 231 201 222 200 214 237 243 215 235 259 215 256 207 231 220 243 233 269 241 218 245 247 250 260 267 225 250 236 240 263 232 248 237 250 250 240 272 245 264 243 229 270 277 244 260 290 271 277 293 283 263 264 262 293 271 281 285 294 298 285 268 291 301 311 303 321 304 314 313 272 287 296 287 278 280 287 296 282 272 310 267 249 264 259 272 303 259 269 281 245 269 264 292 261 300 290 275 270 288 267 267 269 237 250 311 284 269 283 292 306 264 278 262 271 283 232 273 285 277 269 283 266 302 262 270 284 277 277 287 304 273 274 270 283 283 280 278 278 301 292 301 265 292 278 316 346 292 295 297 295 279 337 300 310 311 294 301 317 330 259 287 293 281 301 283 307 325 296 309 316 311 290 314 288 330 273 291 318 325 280 304 311 292 284 346 308 295 336 312 317 314 300 338 323 333 274 338 314 341 343 370 336 329 361 316 325 322 346 309 329 346 372 345 343 334 329 350 355 302 345 313 337 342 319 335 350 363 317 369 361 339 359 330 331 356 373 323 341 337 324 343 346 361 331 334 341 311 357 329 333 321 350 367 339 389 356 348 360 368 337 335 368 303 350 322 378 311 347 349 350 354 343 352 365 326 369 340 343 355 342 350 366 343 368 346 327 378 332 302 338 344 339 337 345 349 333 345 368 342 337 348 324 336 313 320 350 316 344 341 337 338 335 317 316 276 321 327 330 330 336 313 367 318 317 319 333 344 333 332 327 320 315 322 313 321 305 306 301 294 313 303 288 335 337 309 304 304 310 292 305 326 342 314 289 298 272 272 297 315 327 303 312 286 261 323 273 306 293 246 299 284 284 304 294 303 294 265 256 276 299 267 277 292 278 268 288 283 242 251 246 268 295 262 289 259 270 276 304 264 238 298 276 266 230 240 235 246 231 265 249 261 260 278 258 233 235 258 233 249 296 222 232 229 276 234 244 230 235 249 227 230 247 242 244 263 281 227 223 239 229 208 229 218 241 219 243 201 227 247 196 236 240 207 217 235 248 204 225 235 219 220 219 226 247 218 208 234 227 219 219 241 208 219 211 263 203 202 213 207 235 211 237 205 205 227 228 250 234 213 228 223 197 204 210 218 212 183 203 227 211 205 192 210 220 226 201 208 205 191 212 205 212 211 206 200 193 207 187 221 220 206 207 210 196 190 212 212 209 180 194 180 195 203 215 178 196 208 200 204 191 185 173 174 190 182 208 195 192 208 164 210 197 188 190 219 206 187 200 186 204 183 190 186 200 167 207 178 179 212 180 208 183 202 188 204 176 211 197 190 198 182 183 186 180 199 181 180 172 192 190 210 207 167 183 176 220 193 202 181 202 190 184 174 187 175 194 206 205 182 176 204 191 185 226 181 196 199 177 174 175 169 185 205 199 189 182 201 203 174 190 197 209 191 225 213 203 174 163 187 178 187 182 164 195 178 171 167 178 160 185 180 162 156 181 191 175 159 162 194 219 182 186 206 184 213 169 200 187 182 192 181 186 187 170 174 185 217 167 155 161 170 157 175 170 181 171 168 176 187 183 158 200 180 181 146 175 151 200 170 192 176 191 185 176 167 195 202 197 189 172 189 174 149 181 181 177 183 187 169 173 177 164 170 157 178 168 154 172 172 155 167 147 191 186 185 150 176 165 154 184 178 139 162 178 184 166 175 140 160 166 160 195 180 158 172 175 165 171 144 158 151 160 169 179 173 147 150 159 161 182 163 183 174 174 200 152 158 152 176 188 148 164 175 164 187 156 179 186 174 152 158 176 155 181 164 156 179 176 183 173 148 201 175 197 165 148 177 142 169 162 170 163 154 161 191 169 183 167 166 151 153 148 177 161 174 159 133 156 139 160 150 174 169 157 154 165 174 191 172 156 167 186 161 177 175 159 150 152 177 169 164 168 185 176 169 187 147 167 180 168 166 174 166 185 167 171 187 171 171 185 153 167 160 156 174 171 171 145 165 205 153 172 148 146 154 163 171 149 159 170 165 161 151 164 146 158 138 166 135 163 164 160 182 156 187 143 160 171 183 171 157 150 172 157 171 164 168 148 178 144 151 149 157 160 165 155 166 144 144 177 169 164 180 172 168 164 186 174 142 137 175 160 195 165 168 159 148 177 171 151 149 185 173 161 162 175 157 186 160 135 170 184 157 149 142 148 173 144 150 151 165 143 162 169 173 178 171 179 180 136 170 166 192 171 147 163 145 154 173 156 160 162 151 139 153 157 151 149 171 162 145 151 191 166 141 165 154 136 160 173 180 136 164 143 148 151 154 170 160 187 154 166 162 183 177 168 165 152 164 152 173 165 172 178 181 152 152 166 148 162 154 168 159 144 153 159 176 155 170 147 132 165 162 173 165 147 150 155 198 157 186 151 182 161 142 156 168 194 182 153 150 155 158 182 131 164 142 133 181 139 164 181 156 166 180 155 160 159 169 147 160 141 169 146 171 150 153 164 156 148 178 158 167 141 158 153 176 142 168 161 179 151 167 158 170 149 154 158 164 186 151 149 171 140 150 165 162 160 169 180 130 162 164 156 179 173 149 169 143 154 164 180 156 169 157 156 200 159 157 171 168 129 168 168 149 143 184 135 143 149 151 143 150 173 165 164 167 143 156 150 146 187 147 157 165 157 170 158 158 150 140 161 150 144 155 174 158 182 180 148 184 171 189 160 145 169 173 159 151 175 210 196 149 169 178 164 150 181 178 153 172 156 140 169 130 169 149 183 169 155 165 166 149 161 172 150 185 143 161 164 169 176 161 150 169 162 158 186 181 161 159 195 159 174 169 151 143 147 159 158 155 155 151 154 179 166 169 165 140 177 177 153 170 169 163 154 149 158 171 189 138 170 170 162 177 193 163 167 159 164 158 155 188 161 151 205 148 151 168 175 160 174 156 149 163 144 161 160 179 176 168 159 172 145 158 183 178 178 158 159 170 168 157 155 172 144 150 153 155 168 154 162 153 179 151 175 155 145 157 173 168 163 154 153 148 145 157 160 158 181 156 145 164 160 170 150 151 147 149 156 162 159 142 162 159 156 168 168 158 154 162 160 136 171 179 154 165 150 141 176 157 157 150 145 136 165 143 134 185 141 154 144 159 146 164 180 151 143 157 155 166 184 168 141 155 144 161 142 149 151 168 149 142 172 157 166 144 160 166 171 141 180 166 154 178 132 141 134 159 201 148 159 163 146 132 158 180 176 153 174 158 156 172 183 168 156 135 160 159 169 166 150 161 139 183 135 161 162 139 158 153 148 183 164 176 162 175 167 144 135 135 172 179 143 144 156 158 148 139 165 159 151 170 148 150 138 156 161 178 134 175 159 157 159 145 152 159 149 162 196 153 171 189 168 140 162 166 146 157 151 161 177 156 137 155 169 165 142 168 156 170 157 149 151 163 142 147 135 173 151 168 180 160 160 173 167 167 176 161 169 166 176 180 150 144 147 158 169 184 154 162 158 173 151 155 160 170 146 161 152 147 151 170 135 141 153 179 179 138 176 175 151 165 153 169 154 154 168 168 171 160 180 171 191 154 178 169 171 177 158 167 170 166 164 156 163 165 172 167 158 149 166 176 143 179 164 170 146 169 171 158 159 149 153 164 143 156 169 141 158 160 152 152 160 169 137 152 180 177 157 148 143 160 156 144 160 163 161 163 158 161 166 147 174 144 159 177 162 174 144 162 147 145 172 167 166 145 164 144 151 153 141 183 164 152 174 167 172 178 178 170 174 165 154 153 166 163 171 132 143 158 175 159 157 168 159 151 144 166 174 143 140 147 165 157 158 153 158 155 166 161 157 155 186 166 162 172 170 173 181 166 178 161 170 179 142 153 156 159 166 170 168 179 173 161 158 160 155 159 178 175 172 151 184 152 160 161 148 179 151 185 173 158 153 180 166 155 161 155 159 159 169 163 145 175 167 174 175 176 150 164 170 164 165 168 152 162 170 192 160 161 155 169 165 160 172 145 164 150 169 164 144 164 169 157 165 171 162 148 168 176 172 156 160 135 160 167 165 185 154 156 184 138 172 148 177 161 177 169 177 158 158 179 217 144 161 155 165 162 158 171 146 181 192 153 168 143 161 158 155 156 136 173 163 164 151 172 167 161 170 155 169 159 143 172 161 160 181 165 181 152 138 152 166 155 155 145 144 205 178 175 197 163 170 158 181 163 156 139 171 176 160 164 157 170 162 182 176 154 164 164 153 155 180 153 181 180 167 191 161 176 164 192 186 178 165 168 173 156 191 156 171 174 181 171 191 152 200 198 157 160 168 175 169 169 176 177 154 174 155 187 170 155 193 167 157 150 164 157 165 166 155 186 175 171 158 163 171 168 171 174 170 161 159 191 155 179 190 177 185 176 163 199 172 175 174 178 189 157 160 170 185 165 184 183 170 163 173 180 180 159 185 174 162 183 194 170 167 168 166 184 176 163 181 176 170 186 174 165 198 182 175 188 198 176 191 161 196 170 173 184 171 192 170 164 167 198 179 171 178 206 180 179 177 226 206 199 195 179 191 207 178 176 168 193 209 201 180 178 196 177 191 183 180 170 184 171 182 188 193 154 198 184 187 207 181 221 182 182 192 193 208 159 183 192 201 192 200 185 199 200 172 167 183 188 157 184 165 183 176 194 191 196 193 161 170 176 201 180 203 183 166 188 160 181 178 208 157 207 173 193 182 179 178 184 184 167 191 198 178 166 179 180 161 145 210 171 161 186 171 169 195 154 178 171 177 181 185 176 172 178 190 174 214 177 181 154 208 183 163 155 166 167 164 189 175 180 187 163 188 193 180 174 189 182 172 188 179 157 176 148 194 192 167 161 190 176 202 181 198 174 165 185 180 172 169 182 199 181 189 194 183 172 185 160 156 189 178 185 169 189 161 176 186 187 163 179 184 171 163 151 190 175 171 189 176 202 182 171 171 186 162 184 161 171 187 192 163 181 164 213 192 172 177 189 183 176 186 173 160 192 170 179 194 165 166 156 202 172 210 179 177 174 157 183 184 165 190 203 170 173 165 172 144 170 188 189 169 173 198 211 168 175 166 189 195 194 182 180 187 188 159 204 168 171 205 202 179 167 198 164 174 189 186 190 153 197 174 175 200 199 216 182 187 184 192 179 167 154 169 193 199 177 214 169 201 173 179 181 162 180 192 191 189 203 183 180 182 161 181 179 193 187 198 168 192 196 180 152 203 191 189 178 180 187 165 172 187 180 183 162 202 191 177 169 177 187 183 192 215 174 209 192 171 200 189 191 193 184 189 170 176 174 183 185 189 201 160 203 216 182 174 202 203 186 185 191 194 173 195 210 221 195 186 182 168 193 186 195 189 180 204 173 222 184 183 193 179 202 187 215 196 211 206 197 193 178 185 208 178 192 194 203 184 199 175 184 190 206 194 219 205 205 187 172 206 176 166 163 210 196 179 194 194 194 180 166 194 214 185 180 177 199 189 200 200 197 197 209 204 210 197 183 179 187 180 224 205 218 192 187 216 193 192 212 185 208 193 200 204 183 207 191 219 210 234 216 190 197 207 198 182 204 192 200 202 185 187 191 192 214 190 206 206 216 209 204 233 184 193 202 211 218 210 198 207 199 212 201 204 191 213 192 206 179 241 184 217 223 179 198 180 199 217 194 181 212 212 226 197 220 198 207 175 211 211 200 192 201 195 234 174 207 200 213 228 205 215 234 199 193 216 218 215 197 211 207 203 223 204 194 230 214 223 202 224 188 227 219 184 187 192 204 237 208 224 203 218 213 204 208 199 204 204 216 220 203 207 208 190 205 223 220 190 209 213 192 192 202 202 203 214 227 189 188 204 214 221 212 185 189 216 195 199 225 199 169 207 234 205 198 207 210 189 244 223 233 219 213 203 198 199 205 204 230 191 191 216 185 196 193 210 193 224 190 198 218 198 189 216 199 202 211 194 180 210 215 203 213 190 216 229 198 224 191 234 224 201 216 217 204 246 191 185 239 208 191 210 204 202 177 193 190 197 230 214 197 193 191 206 188 210 207 208 197 209 206 184 198 191 176 215 200 199 205 206 188 172 196 190 186 190 207 198 206 202 170 232 207 192 188 220 210 184 217 232 190 183 195 191 216 206 191 211 195 222 213 187 188 192 175 214 193 185 189 180 197 194 173 199 200 189 210 236 211 196 190 190 226 200 195 187 219 200 199 199 227 197 180 201 177 228 195 201 202 218 196 216 214 198 194 195 210 212 200 195 190 206 170 178 189 180 173 183 179 176 188 203 217 199 206 195 194 173 183 185 202 231 168 193 200 197 172 207 169 194 184 208 205 179 190 170 190 204 192 178 198 192 197 202 173 196 151 199 183 172 179 207 187 188 205 180 177 185 208 218 225 199 203 221 202 167 175 217 185 188 202 197 211 202 182 202 187 175 195 209 200 173 181 204 190 210 211 201 174 221 199 167 220 185 194 193 195 176 187 213 164 192 198 202 178 190 215 161 197 204 216 199 202 196 184 215 171 185 158 192 205 189 203 175 208 191 220 206 185 195 167 212 180 187 193 195 175 181 182 189 198 208 204 169 200 173 200 182 187 208 177 194 170 187 213 189 206 208 180 207 179 194 227 236 175 212 201 204 215 192 187 218 229 201 190 194 182 195 200 196 209 197 184 199 206 191 201 199 204 174 167 190 195 193 172 194 193 184 202 189 190 213 201 198 189 186 192 203 218 181 178 209 207 195 187 206 207 202 183 210 181 193 202 191 181 191 190 222 184 191 202 193 188 202 215 220 196 209 192 209 197 180 185 175 210 200 201 179 187 188 190 205 189 201 202 157 188 217 182 218 231 198 199 203 188 189 177 189 220 193 206 198 188 222 198 197 214 210 189 196 170 177 201 197 194 205 222 227 210 246 181 222 215 205 196 204 199 203 188 198 193 196 215 222 197 194 197 205 213 241 204 211 231 201 199 187 222 188 212 214 216 183 208 196 192 179 234 199 224 232 227 223 187 184 214 204 218 227 211 232 204 208 218 194 214 222 219 228 222 208 217 201 239 211 213 205 199 213 209 217 237 214 207 205 200 202 208 215 215 193 206 225 223 226 210 212 216 242 233 207 209 208 212 197 222 216 204 240 200 234 218 226 217 213 201 195 225 215 220 193 257 210 211 197 209 236 219 211 232 211 225 242 243 226 210 214 217 233 222 224 222 213 221 234 217 218 221 232 257 211 206 233 234 229 211 209 230 236 210 212 229 240 251 210 223 228 231 239 241 240 202 207 232 241 208 232 241 224 227 246 232 232 223 229 214 236 226 263 257 245 240 275 236 231 279 242 266 217 217 244 232 257 224 219 231 232 273 256 248 226 270 243 258 231 235 262 256 248 225 222 261 247 240 270 238 234 233 274 256 238 299 234 278 246 290 258 233 291 241 281 266 258 258 283 265 243 291 290 289 257 259 289 287 280 279 283 260 283 282 288 258 274 284 294 272 281 297 277 263 315 278 245 269 311 297 297 295 292 281 246 244 294 308 300 297 288 289 285 271 300 284 285 301 284 281 342 307 311 286 308 311 304 313 334 355 350 280 288 313 292 315 295 290 267 336 315 327 309 347 319 344 331 328 322 301 312 324 321 354 334 349 320 358 309 320 325 318 356 319 348 333 381 334 334 373 347 342 348 353 362 357 375 339 348 355 365 375 392 333 364 360 404 374 389 386 349 396 392 368 371 371 362 363 398 358 363 371 371 383 347 379 402 373 355 395 391 401 388 388 381 383 407 365 345 387 372 395 369 359 393 377 378 385 416 398 463 360 407 414 403 404 395 376 391 405 419 399 366 387 379 380 395 392 384 396 432 426 414 410 408 422 375 402 373 365 395 386 377 389 390 401 407 435 382 349 395 378 386 361 422 376 396 378 371 420 409 359 380 408 396 403 387 359 405 398 380 402 358 382 377 436 376 376 371 382 387 365 380 367 388 393 385 382 394 386 408 389 359 372 374 391 377 338 349 343 336 361 380 362 343 326 353 358 338 356 359 359 366 361 325 342 368 356 332 323 307 329 333 332 326 336 307 317 320 325 346 368 325 342 334 310 309 289 307 297 319 334 318 324 305 334 291 292 306 280 274 264 300 297 324 322 282 316 307 289 281 257 301 260 298 280 281 298 288 304 289 301 295 284 326 285 308 250 288 285 280 283 285 233 231 261 267 265 238 273 256 292 261 271 235 282 267 240 299 266 270 246 276 225 231 258 264 275 274 243 240 229 235 246 213 237 266 233 258 233 234 233 251 244 240 223 243 266 239 219 265 236 246 231 236 223 245 243 239 238 216 258 218 243 233 211 240 226 229 207 227 240 239 218 234 209 212 239 199 229 231 212 238 205 191 208 214 242 235 230 213 215 210 220 190 219 198 176 227 196 198 196 192 209 203 213 184 196 194 170 211 202 227 196 210 186 195 194 190 206 187 194 182 222 225 224 186 197 211 184 196 182 199 176 192 195 206 208 184 199 178 154 197 185 205 170 180 199 188 185 206 178 207 213 200 186 192 163 212 181 199 187 194 196 191 160 202 182 195 186 176 194 187 173 183 156 187 188 175 203 207 151 171 196 194 162 171 217 197 177 178 170 160 182 178 185 176 173 160 142 161 185 190 168 194 181 166 191 169 162 192 186 189 183 188 179 185 176 171 165 149 177 191 187 175 164 188 165 173 195 180 187 170 163 179 199 142 175 155 168 177 176 153 172 190 151 178 194 182 152 155 155 177 162 155 162 177 185 144 164 180 195 164 164 163 164 156 177 185 166 173 155 164 146 196 160 181 165 176 211 158 160 147 143 182 186 162 164 162 190 171 177 159 166 161 160 164 154 147 179 179 150 148 160 153 164 159 187 176 172 164 168 156 158 145 178 172 174 153 145 175 184 187 169 148 180 177 162 160 176 153 166 151 161 186 172 155 158 178 159 162 186 162 163 164 188 163 170 176 150 160 165 130 156 138 156 143 177 174 166 183 165 175 172 172 136 151 148 175 159 162 153 157 165 176 153 181 132 166 163 164 163 178 153 144 170 171 148 146 167 159 160 170 152 170 161 142 161 158 153 134 165 139 163 150 162 160 193 128 155 158 171 150 165 135 175 168 167 156 134 156 162 161 147 156 154 133 153 168 135 157 141 169 124 160 139 140 155 152 133 166 156 158 141 170 140 165 139 160 172 131 135 157 134 135 130 132 157 129 172 158 154 156 151 140 162 134 177 151 175 150 148 151 144 162 145 162 159 152 137 168 145 162 146 161 165 125 156 149 156 142 145 124 165 136 145 138 129 139 138 155 162 132 142 132 133 128 147 144 137 139 129 150 156 147 162 132 159 137 156 131 163 165 146 156 139 143 142 139 174 141 138 151 156 140 131 139 143 156 147 159 141 135 144 137 161 140 153 142 153 159 140 152 153 143 187 150 175 158 126 176 138 141 160 144 146 144 142 149 149 133 154 134 150 128 128 154 142 150 154 138 138 156 143 138 162 141 135 159 153 161 153 152 141 141 152 138 147 133 181 138 153 147 136 165 154 129 151 182 176 162 158 139 159 139 150 162 146 147 132 134 130 152 162 156 135 150 155 157 149 142 154 152 143 129 143 139 148 155 146 123 144 142 140 135 150 148 133 130 134 158 148 137 141 143 154 151 128 139 149 152 129 154 149 153 161 153 155 180 125 141 128 126 150 140 144 176 130 135 152 170 142 148 152 155 144 129 162 136 155 154 134 134 142 141 138 143 146 153 147 142 154 137 159 146 166 160 155 141 133 157 151 140 162 124 130 165 147 143 125 163 120 146 150 139 170 156 131 154 151 151 135 143 143 145 157 162 138 138 143 140 153 170 129 139 130 136 149 138 147 156 142 154 153 149 141 163 136 140 139 135 154 146 154 137 133 151 167 137 139 140 130 141 131 161 135 147 153 135 156 143 137 140 158 156 136 139 135 138 138 135 150 136 132 172 158 138 152 134 149 135 125 154 133 143 143 138 140 130 134 147 146 137 133 131 138 132 176 118 132 158 142 136 146 156 158 155 138 125 153 152 131 125 146 152 146 136 163 142 149 142 152 165 131 131 131 132 169 134 135 148 138 138 141 134 126 168 161 154 132 149 145 149 140 144 153 142 131 127 151 131 128 145 129 137 148 169 145 141 163 136 144 126 164 150 136 150 127 139 130 153 145 144 138 157 134 158 135 120 136 145 104 115 150 146 141 157 143 119 126 131 148 125 119 123 135 156 152 147 112 154 143 162 143 130 134 157 132 142 134 146 160 162 142 136 139 102 153 136 164 146 146 155 137 136 129 147 145 124 127 142 150 134 135 130 139 126 149 139 159 110 136 118 132 120 121 138 143 112 138 151 139 139 164 135 141 127 151 155 156 116 131 127 150 149 152 133 161 144 153 153 129 129 147 141 130 119 111 156 125 122 163 151 140 136 158 145 130 132 133 135 157 149 164 127 133 113 157 135 149 146 127 147 138 144 134 139 142 141 141 153 142 151 134 133 133 129 155 136 143 136 128 143 137 167 139 131 124 134 127 134 158 128 147 132 155 137 128 135 133 126 157 142 145 130 134 155 144 133 146 147 139 137 140 133 134 144 133 136 127 139 121 138 147 126 128 138 134 127 117 153 129 152 152 159 137 146 147 144 117 144 142 130 116 118 138 134 123 164 138 138 127 116 143 146 154 132 150 149 161 140 161 135 126 163 138 121 154 139 143 157 113 121 122 151 120 153 158 138 136 145 123 158 146 158 146 148 130 148 121 146 137 130 141 126 138 140 162 128 119 130 154 140 135 142 140 140 125 120 145 136 148 144 136 118 130 123 128 134 124 142 139 135 135 145 130 127 132 133 142 131 136 150 134 144 163 150 152 133 139 139 131 148 137 149 142 136 148 136 126 153 157 136 120 132 142 131 124 126 157 137 164 142 156 136 136 134 147 116</intensities>
			</dataPoints>
		</scan>
	</xrdMeasurement>
</xrdMeasurements>
