<?xml version="1.0" encoding="UTF-8"?>
<xrdMeasurements xmlns="http://www.xrdml.com/XRDMeasurement/1.7" xmlns:xsi="http://www.w3.org/2001/XMLSchema-instance" xsi:schemaLocation="http://www.xrdml.com/XRDMeasurement/1.7 http://www.xrdml.com/XRDMeasurement/1.7/XRDMeasurement.xsd" status="Completed">
	<comment>
		<entry>Configuration=Conf. Reflection-transmission spinner, Owner=User-1, Creation date=2/28/2018 8:43:02 AM</entry>
		<entry>Goniometer=Theta/Theta; Minimum step size 2Theta:0.0001; Minimum step size Omega:0.0001</entry>
		<entry>Sample stage=Reflection-transmission spinner; Minimum step size Phi:0.1</entry>
		<entry>Diffractometer system=EMPYREAN</entry>
		<entry>Measurement program=C:\PANalytical\Data Collector\Programs\sample-1.xrdmp, Identifier={BB6687EE-8248-4E06-B0C7-67735DEB5D7E}</entry>
		<entry>Batch program=C:\PANalytical\Data Collector\Programs\P3.xrdmp, Identifier={110013A4-273B-4C82-A4D1-871885B7687B}</entry>
	</comment>
	<sample type="To be analyzed">
		<id></id>
		<name></name>
		<preparedBy></preparedBy>
	</sample>
	<xrdMeasurement measurementType="Scan" status="Completed" sampleMode="Reflection">
		<comment>
			<entry>PHD Lower Level = 4.02 (keV), PHD Upper Level = 11.27 (keV)</entry>
		</comment>
		<usedWavelength intended="K-Alpha 1">
			<kAlpha1 unit="Angstrom">1.5405980</kAlpha1>
			<kAlpha2 unit="Angstrom">1.5444260</kAlpha2>
			<kBeta unit="Angstrom">1.3922500</kBeta>
			<ratioKAlpha2KAlpha1>0.5000</ratioKAlpha2KAlpha1>
		</usedWavelength>
		<incidentBeamPath>
			<radius unit="mm">240.00</radius>
			<xRayTube id="1010048" name="Empyrean Cu LFF HR (9430 033 7310x) DK427586">
				<tension unit="kV">40.0</tension>
				<current unit="mA">40.0</current>
				<anodeMaterial>Cu</anodeMaterial>
				<focus type="Line">
					<length unit="mm">12.0</length>
					<width unit="mm">0.4</width>
					<takeOffAngle unit="deg">4.4</takeOffAngle>
				</focus>
			</xRayTube>
			<xRayMirror id="27020009" name="Bragg-Brentano HD" hybrid="false">
				<crystal type="Graded" shape="Flat">BB/HD</crystal>
				<acceptanceAngle unit="deg">0.800</acceptanceAngle>
				<length unit="mm">55.3</length>
			</xRayMirror>
			<sollerSlit id="21010002" name="Soller slits 0.04 rad.">
				<opening unit="rad">0.0400</opening>
			</sollerSlit>
			<mask id="22030009" name="Fixed mask 10 mm">
				<width unit="mm">10.00</width>
			</mask>
			<antiScatterSlit id="22010003" name="Fixed slit 1°" xsi:type="fixedAntiScatterSlitType">
				<height unit="mm">1.52</height>
			</antiScatterSlit>
			<divergenceSlit id="22010005" name="Fixed slit 1/4°" xsi:type="fixedDivergenceSlitType">
				<distanceToSample unit="mm">140.00</distanceToSample>
				<height unit="mm">0.38</height>
			</divergenceSlit>
		</incidentBeamPath>
		<diffractedBeamPath>
			<radius unit="mm">240.00</radius>
			<antiScatterSlit id="22090010" name="AS slit 8.0 mm (PIXcel)" xsi:type="fixedAntiScatterSlitType">
				<height unit="mm">8.00</height>
			</antiScatterSlit>
			<sollerSlit id="21020003" name="Large Soller slits 0.04 rad.">
				<opening unit="rad">0.0400</opening>
			</sollerSlit>
			<detector id="7010019" name="PIXcel1D-Medipix3 detector" xsi:type="rtmsDetectorType">
				<phd unit="%">
					<lowerLevel>25.0</lowerLevel>
					<upperLevel>70.0</upperLevel>
				</phd>
				<mode>Scanning</mode>
				<activeLength unit="deg">3.3482</activeLength>
			</detector>
		</diffractedBeamPath>
		<scan appendNumber="0" mode="Continuous" scanAxis="Gonio" status="Completed">
			<header>
				<startTimeStamp>2025-12-28T18:12:05+08:00</startTimeStamp>
				<endTimeStamp>2025-12-28T18:23:35+08:00</endTimeStamp>
				<author>
					<name>User</name>
				</author>
				<source>
					<applicationSoftware version="5.5a">Data Collector</applicationSoftware>
					<instrumentControlSoftware version="7.9j 20171025">EMPYREAN</instrumentControlSoftware>
					<instrumentID>0000000011214615</instrumentID>
				</source>
			</header>
			<dataPoints>
				<positions axis="2Theta" unit="deg">
					<startPosition>6.00558257</startPosition>
					<endPosition>75.99655438</endPosition>
				</positions>
				<positions axis="Omega" unit="deg">
					<startPosition>3.00279129</startPosition>
					<endPosition>37.99827719</endPosition>
				</positions>
				<positions axis="Phi" unit="deg">
					<commonPosition>0.0</commonPosition>
				</positions>
				<commonCountingTime unit="seconds">13.770</commonCountingTime>
				<intensities unit="counts">447 458 446 398 441 436 427 447 399 438 416 418 459 450 438 419 436 400 399 440 444 442 453 457 449 419 440 404 429 424 394 412 408 405 401 443 411 410 458 449 415 395 420 444 438 413 414 426 413 446 397 375 465 443 435 420 439 449 440 451 441 422 430 422 440 440 412 395 389 424 445 405 447 423 416 412 407 438 397 384 404 372 404 451 385 412 424 405 418 424 404 438 416 427 412 384 430 442 416 410 433 375 400 399 444 437 423 436 417 393 424 388 438 402 408 400 450 416 419 426 426 388 439 409 404 404 385 409 418 385 404 397 399 400 406 424 422 388 363 396 458 439 394 436 399 440 405 425 404 425 389 401 408 415 403 384 407 378 377 396 387 422 407 396 357 395 419 414 415 387 421 400 415 368 405 400 407 409 396 401 427 427 405 413 398 424 418 404 416 427 417 413 408 420 402 395 396 359 397 432 391 399 422 409 378 387 417 388 405 450 395 412 419 367 390 403 410 391 376 374 353 390 401 417 427 406 406 343 418 406 410 462 411 399 356 378 372 426 394 407 448 422 363 369 387 420 386 406 346 434 408 370 395 375 373 390 418 407 407 376 378 383 371 361 422 391 355 375 388 395 389 366 379 392 385 372 401 414 370 375 369 353 378 407 387 407 420 404 334 375 394 390 407 413 386 423 379 357 387 367 400 415 397 394 398 403 380 419 377 381 399 357 376 384 426 426 389 373 381 392 370 408 375 379 382 396 402 390 369 408 401 381 354 413 414 386 368 382 388 370 375 371 353 389 406 401 379 402 382 399 375 393 400 359 371 381 406 394 392 375 399 403 405 396 368 400 382 364 365 395 368 377 381 396 383 397 387 397 385 339 365 401 371 406 349 413 377 378 377 375 335 367 377 408 381 384 356 405 377 385 352 376 358 333 369 336 377 338 382 332 390 378 363 366 377 350 384 414 349 356 391 385 363 387 359 375 347 376 394 382 394 393 374 342 313 395 355 361 356 348 352 363 390 368 358 382 381 376 338 341 358 356 359 399 352 383 377 336 403 315 352 368 372 372 390 371 354 370 343 341 380 353 374 377 365 374 352 388 368 386 343 379 365 361 338 326 354 332 367 374 360 355 364 407 345 361 351 343 323 327 377 338 393 350 353 349 334 356 375 349 336 366 398 363 335 340 391 376 348 374 373 348 385 365 369 350 357 354 354 385 357 373 338 389 350 362 361 354 359 372 373 343 367 365 342 349 376 353 372 363 358 340 351 362 330 346 343 387 332 336 359 372 343 312 342 339 329 341 359 364 390 368 345 371 353 373 359 368 326 354 361 334 339 344 357 346 329 342 350 345 368 364 357 320 359 356 340 356 327 362 332 292 340 361 336 357 391 337 352 358 364 349 340 338 358 337 383 360 393 347 348 350 358 354 289 342 314 358 361 389 362 366 357 399 346 392 338 350 343 319 352 340 323 368 356 334 372 338 350 349 338 336 344 371 338 359 349 337 356 342 298 346 377 355 312 323 372 352 344 349 338 342 351 351 344 342 316 298 328 336 331 341 339 360 346 362 326 350 374 345 330 365 347 335 312 343 368 328 345 349 323 347 381 348 339 332 384 374 315 338 315 341 336 340 288 323 318 339 352 341 322 358 324 335 354 339 344 324 310 331 334 356 321 359 326 336 370 339 351 342 343 309 358 313 327 337 345 311 350 306 344 342 343 347 326 352 332 311 311 326 324 356 345 335 363 340 324 331 298 341 318 327 336 335 333 355 313 325 316 312 352 332 306 326 349 354 338 324 351 314 325 320 330 325 298 318 322 335 333 327 342 296 330 305 296 342 355 336 330 302 320 335 376 337 338 328 312 319 354 307 326 334 326 308 319 329 332 337 342 334 317 305 295 326 300 357 343 334 330 325 335 314 308 332 286 320 322 314 322 308 345 318 361 352 337 322 323 306 352 329 337 328 310 319 303 313 340 292 339 328 327 337 278 291 356 294 357 284 305 333 350 323 275 332 315 328 341 320 296 321 313 305 326 307 353 328 310 353 320 302 304 353 322 311 279 348 324 307 361 362 318 355 324 333 328 325 303 297 297 320 318 297 314 310 320 289 311 326 329 340 346 324 307 328 328 317 305 313 308 314 353 323 338 348 314 346 333 295 322 275 324 326 318 345 300 301 317 322 327 326 301 314 326 340 320 330 309 302 330 334 291 331 324 315 329 333 300 303 315 320 304 296 308 294 329 353 312 315 311 312 310 314 297 322 289 333 298 318 295 330 280 304 295 312 314 319 303 295 326 333 327 318 304 314 307 289 335 296 315 316 320 309 291 285 319 270 301 265 285 332 311 310 281 306 294 322 313 295 297 326 300 316 282 325 313 315 322 315 311 342 320 310 323 334 322 332 308 338 295 328 311 309 314 313 323 318 283 266 305 290 325 302 296 320 283 288 307 301 291 300 316 285 288 296 292 315 314 314 313 308 272 333 327 305 303 306 292 301 313 312 305 328 298 293 293 299 288 281 307 312 286 305 285 323 309 310 274 292 280 295 277 283 290 330 304 328 307 251 274 311 302 300 276 273 290 295 319 285 306 297 260 295 313 309 309 303 265 309 289 324 313 304 291 299 338 307 291 300 279 300 303 277 268 325 302 298 315 295 299 315 326 323 308 312 308 306 303 293 307 316 277 302 270 298 282 270 299 303 291 306 303 325 299 278 300 277 295 296 301 289 317 268 266 328 295 281 291 308 308 277 339 308 311 306 306 324 286 275 303 262 258 282 280 302 283 289 283 310 282 297 300 271 268 259 280 231 296 286 305 285 325 321 293 293 289 289 331 284 289 272 282 273 314 261 285 296 276 286 296 267 290 268 284 279 280 268 271 297 285 310 296 290 290 270 297 272 285 272 299 272 275 304 248 266 261 282 273 276 248 292 281 285 244 264 261 236 275 291 274 247 293 297 287 266 262 266 287 302 266 285 275 282 272 310 270 276 291 257 266 274 278 284 262 267 282 258 269 302 249 267 294 293 245 279 283 290 284 284 280 270 296 258 283 280 285 277 262 267 270 234 280 283 239 301 282 272 301 232 241 267 244 273 289 277 299 240 256 273 276 261 292 284 235 266 245 285 287 282 288 273 289 250 286 264 278 271 269 250 283 269 287 265 288 265 285 263 292 263 266 299 262 268 262 275 273 240 246 280 263 249 246 251 270 260 280 269 240 256 270 306 268 306 279 274 291 230 264 291 276 247 274 236 285 287 267 282 283 262 260 268 295 260 313 279 304 287 278 288 270 263 288 274 277 278 291 282 270 243 222 274 263 276 274 292 288 266 279 271 289 274 270 301 275 269 284 270 268 301 275 299 287 278 304 305 291 300 246 268 284 278 277 273 311 290 304 281 308 275 284 267 277 288 295 257 278 305 303 296 256 292 289 305 285 294 312 324 316 318 333 355 291 332 310 311 365 336 314 314 350 361 351 331 350 347 377 385 380 401 399 422 412 422 475 448 468 453 492 514 501 479 544 551 557 555 613 694 665 671 658 740 794 771 840 843 848 990 946 989 1006 1089 1118 1200 1205 1194 1363 1398 1401 1380 1448 1584 1594 1593 1454 1587 1493 1543 1496 1363 1386 1312 1214 1168 1032 967 874 861 726 718 629 638 625 586 550 465 465 455 440 418 455 419 402 363 369 340 362 364 393 351 366 374 354 297 348 307 320 311 325 328 336 312 314 291 295 272 285 300 299 286 275 296 301 308 260 271 286 294 232 272 304 283 292 293 257 287 249 280 276 271 256 262 296 288 289 262 277 271 258 257 261 260 268 274 282 256 274 282 243 272 263 243 271 245 262 259 242 242 237 262 256 234 237 230 266 294 257 235 260 249 249 229 243 272 260 257 259 275 242 214 236 241 234 230 221 228 257 256 239 249 236 222 264 239 259 236 247 238 245 239 230 275 259 263 230 272 245 249 224 234 228 235 260 230 239 220 224 270 242 231 241 228 265 248 238 248 240 238 241 224 264 258 224 256 249 268 225 268 272 216 245 238 261 229 239 270 231 239 233 192 235 262 226 237 250 245 246 263 245 233 264 241 258 243 257 262 238 231 216 244 221 235 224 269 223 247 216 262 242 227 258 213 233 226 219 261 218 238 244 224 231 223 231 241 237 227 216 241 229 234 270 234 242 228 220 239 251 271 244 232 236 235 241 265 235 210 223 265 261 244 222 226 245 268 239 239 256 240 265 232 272 236 245 219 241 224 227 261 234 233 262 234 257 230 231 218 240 240 265 248 256 238 260 233 260 236 227 265 223 244 264 268 212 224 217 235 250 212 219 225 227 295 218 218 209 240 231 249 225 219 233 260 232 245 248 220 243 216 231 231 243 236 233 237 242 236 246 241 231 228 232 232 224 210 233 234 234 242 243 243 277 211 236 244 228 259 231 232 258 239 238 231 218 211 224 238 222 233 236 230 219 284 231 258 204 258 227 243 228 235 229 234 217 239 219 217 236 207 225 248 217 226 235 219 234 223 235 221 248 242 233 223 235 224 220 213 229 240 213 219 239 212 216 266 236 235 212 268 228 237 208 238 206 235 238 214 248 204 244 218 220 229 242 237 226 247 243 238 240 220 256 237 244 224 223 210 213 222 246 231 231 250 226 248 222 226 228 235 220 241 224 249 218 227 235 204 233 266 203 214 243 212 241 228 237 263 237 221 238 213 240 258 241 228 225 212 224 243 256 258 230 232 239 264 256 204 229 226 246 214 211 259 213 243 259 246 224 230 236 245 261 218 234 226 217 226 232 206 232 215 213 209 224 224 242 235 245 232 233 263 211 208 249 221 238 217 219 234 239 249 244 213 206 233 217 240 227 249 219 233 234 245 217 209 245 202 204 221 234 227 197 226 235 210 248 232 223 215 224 205 201 213 234 222 226 211 210 249 241 238 199 232 258 228 194 216 231 202 260 261 231 236 215 224 229 205 210 221 222 223 224 232 205 219 258 201 214 210 226 207 250 241 218 224 231 206 226 222 224 219 231 227 214 235 234 229 190 248 221 213 221 229 213 224 223 188 235 209 282 214 212 213 225 228 226 212 220 227 194 217 216 195 184 211 191 235 213 240 224 221 218 196 214 218 226 209 213 189 259 204 219 210 182 218 208 233 209 211 186 228 220 226 230 216 216 201 218 222 230 251 262 217 212 230 203 237 209 215 229 218 241 234 241 222 205 209 233 218 234 238 210 221 194 227 221 224 179 209 231 221 216 196 214 217 207 204 228 241 263 220 235 243 234 202 234 231 203 237 215 191 237 197 227 207 201 212 204 226 219 212 235 204 178 214 206 202 242 200 204 223 210 223 225 215 222 204 201 195 210 184 218 218 227 184 228 202 217 179 224 232 200 212 219 208 239 203 210 229 201 210 220 218 234 213 199 208 216 214 205 185 219 219 209 203 221 211 202 190 221 177 217 182 207 210 184 201 188 214 192 230 199 210 197 203 226 196 192 197 189 220 198 220 186 221 221 232 205 206 202 225 200 218 221 215 212 196 205 206 226 231 188 224 196 209 199 207 194 184 215 196 203 217 199 198 196 211 210 218 209 196 219 208 178 193 194 202 225 222 213 202 206 213 200 208 169 182 195 195 214 232 196 178 185 206 188 205 224 197 186 217 186 198 209 189 190 194 184 216 221 187 198 189 206 200 209 198 219 202 213 170 184 176 207 208 184 188 202 208 193 204 209 209 185 193 209 214 201 202 202 202 203 199 197 187 203 186 175 187 209 203 190 189 195 176 207 190 178 207 204 169 176 199 189 196 191 192 215 193 207 212 182 196 202 192 176 164 179 204 177 209 214 220 196 180 196 191 184 208 208 207 194 182 192 183 201 180 217 193 203 175 182 215 209 164 208 179 175 191 176 181 179 207 219 209 198 210 194 190 180 207 203 190 230 168 198 203 173 192 213 209 221 190 209 192 224 187 189 194 191 204 187 233 201 191 182 194 205 194 233 189 194 187 213 210 208 209 202 173 215 237 195 218 226 202 227 223 206 179 234 239 230 240 220 218 193 201 222 218 227 214 197 207 207 187 202 214 217 232 208 207 207 193 178 216 201 177 166 186 215 203 210 196 190 198 212 172 189 182 195 188 190 198 181 198 193 187 208 188 203 203 189 219 191 177 177 186 179 175 170 190 177 209 192 188 197 196 211 173 203 185 188 192 194 194 206 186 172 213 196 206 197 172 203 203 173 181 203 187 190 180 188 213 186 201 202 165 184 198 182 180 208 187 194 194 195 189 186 201 200 184 180 172 180 182 194 164 210 181 200 192 181 179 201 176 173 173 179 192 200 188 182 180 172 180 182 169 165 192 169 178 191 192 181 168 181 170 199 193 181 181 200 185 205 184 209 168 170 170 213 169 170 177 190 201 184 194 161 181 202 190 196 200 192 180 218 209 193 188 173 184 190 206 172 210 187 192 202 193 180 192 173 185 200 179 183 214 206 201 167 187 197 180 187 203 190 192 211 188 205 224 183 185 196 187 200 206 183 192 211 207 227 211 190 181 191 204 180 192 196 202 200 182 228 205 202 219 198 194 210 230 225 205 211 220 215 201 201 223 227 227 226 214 248 202 224 243 266 226 240 215 240 209 228 225 226 250 259 251 283 234 278 292 287 260 295 281 338 309 342 302 306 343 334 373 370 362 379 479 427 434 490 495 491 556 579 609 628 594 761 731 704 834 802 904 944 962 966 1005 1043 1064 1070 1062 1065 1149 1071 1014 1075 1010 992 1003 983 945 970 884 870 808 769 779 771 698 653 594 626 575 560 616 547 534 500 523 531 477 442 498 470 510 495 498 465 503 509 503 462 497 515 548 548 610 534 675 629 701 691 727 728 750 817 836 866 836 980 1050 1012 1034 1107 1154 1139 1249 1231 1256 1356 1307 1421 1432 1449 1441 1442 1442 1480 1509 1476 1561 1459 1481 1543 1476 1442 1484 1568 1561 1484 1571 1644 1616 1709 1700 1747 1845 1823 1782 1820 1839 1889 1839 1892 1774 1756 1821 1720 1756 1696 1618 1661 1489 1408 1359 1287 1189 1207 1110 1068 979 933 798 855 755 793 701 648 582 576 602 601 505 500 504 465 444 404 454 405 381 387 405 373 376 337 361 347 358 340 292 308 288 273 297 294 295 309 300 278 270 262 283 251 249 241 256 268 233 220 266 250 225 231 247 249 197 217 225 232 234 218 256 208 223 216 209 196 236 240 229 210 213 191 185 219 221 211 194 210 202 181 209 168 188 190 208 201 196 176 211 175 188 174 193 192 202 191 174 183 160 164 202 182 196 171 193 189 158 164 165 185 154 175 183 159 193 173 205 199 181 168 176 162 177 157 167 204 181 164 181 164 184 182 181 168 180 171 189 192 202 184 167 165 162 144 159 169 163 172 193 177 168 174 189 180 169 182 187 182 157 184 162 153 168 156 177 166 178 159 160 181 171 157 179 172 193 150 185 180 166 164 154 165 182 168 192 171 162 156 201 162 163 171 174 171 141 168 173 170 156 150 210 159 151 169 157 158 174 143 160 159 132 168 130 176 155 192 163 163 139 185 158 158 170 150 181 171 172 160 162 179 168 176 148 183 170 187 171 153 158 146 175 162 163 156 167 162 140 150 175 169 157 176 158 149 162 170 153 142 172 156 162 166 148 174 160 179 180 158 157 153 161 152 163 178 154 138 184 152 164 176 157 174 172 155 161 171 150 170 178 158 157 156 187 147 163 163 173 153 190 165 152 156 170 151 174 156 161 168 152 164 151 159 144 161 145 152 173 149 138 134 161 144 156 171 165 168 171 173 174 160 152 152 165 166 178 146 168 172 150 146 153 147 146 153 177 160 146 159 169 145 118 145 145 158 149 145 144 168 146 138 147 158 161 125 181 145 151 168 173 147 158 147 148 147 150 143 158 132 154 172 148 158 145 156 149 136 164 149 141 182 149 177 144 156 161 159 149 161 156 162 148 174 139 152 154 158 156 157 142 158 179 161 139 151 155 138 158 161 151 150 175 116 162 168 164 149 155 162 159 180 159 164 142 170 153 159 150 166 155 138 161 152 157 154 166 117 155 168 151 144 158 159 165 138 178 157 177 163 153 161 164 140 172 146 143 134 157 151 151 157 167 143 149 157 159 150 149 145 151 150 163 146 159 153 139 146 157 151 150 158 176 171 136 145 164 146 167 154 142 173 143 143 159 156 152 147 150 169 150 151 121 167 150 155 143 173 146 150 150 159 130 180 156 164 144 156 144 141 162 153 138 184 178 159 172 166 174 157 152 145 153 161 147 154 166 150 143 169 140 148 157 116 151 185 181 115 153 131 144 189 173 147 143 155 142 140 143 160 157 150 166 159 137 145 134 152 172 175 165 142 160 110 150 176 148 145 150 172 150 146 164 173 148 145 159 160 159 140 145 168 144 166 156 142 168 147 148 138 154 160 138 143 161 144 157 161 163 151 157 134 125 169 162 127 148 157 145 153 156 142 176 159 162 171 163 155 145 168 190 177 165 140 157 165 151 172 141 155 190 182 163 158 146 162 163 170 159 161 166 171 189 178 178 190 198 190 197 192 176 200 203 228 210 220 217 224 201 256 219 225 272 270 247 295 303 277 325 346 348 363 383 382 389 408 442 478 445 467 491 461 559 467 505 547 480 497 477 519 470 468 444 434 470 448 415 362 358 363 353 371 343 317 309 291 267 246 296 268 228 249 229 205 204 220 238 222 211 197 212 229 196 189 172 176 215 187 165 182 172 189 168 174 190 183 181 162 190 174 155 187 172 191 169 162 175 158 186 179 169 207 161 174 170 179 169 180 204 190 168 149 188 195 152 178 157 180 163 176 183 180 151 146 163 174 170 178 182 173 141 173 166 158 141 168 157 176 173 143 160 169 174 166 186 148 196 150 150 156 147 155 176 179 174 142 142 156 144 140 164 139 147 156 155 145 148 156 131 156 156 151 171 164 151 178 168 174 156 139 161 152 151 180 154 156 156 153 150 159 142 160 128 148 145 147 161 172 178 147 151 170 143 159 192 180 171 152 158 162 151 158 152 153 147 157 149 121 160 149 159 139 161 163 155 160 162 171 172 165 153 129 138 154 167 121 169 134 155 150 138 150 144 153 145 149 181 152 172 166 168 161 158 161 163 155 143 153 147 153 146 164 176 158 180 177 178 155 151 156 173 159 161 152 152 179 151 174 163 161 183 161 138 168 174 158 158 177 166 182 143 176 164 174 188 153 159 182 176 190 182 148 154 173 192 181 173 158 201 169 160 175 201 182 183 188 191 170 194 178 210 177 177 196 193 188 213 218 198 209 235 237 215 223 241 236 243 232 231 259 292 313 264 291 301 323 303 355 307 346 351 334 406 383 416 415 442 487 492 494 544 525 618 579 618 610 691 693 659 735 767 774 800 870 832 930 848 847 871 931 845 817 891 819 794 764 755 763 706 678 675 628 606 612 581 552 509 490 468 468 473 441 434 411 365 368 328 299 311 266 277 274 240 246 265 232 259 229 227 202 210 208 208 208 184 202 190 220 176 201 177 169 213 193 193 184 175 193 181 192 161 168 197 153 162 190 171 166 174 166 176 168 163 141 158 170 149 158 145 174 164 168 144 159 178 171 171 163 174 187 145 156 158 168 143 177 180 168 138 186 166 162 138 153 164 155 148 153 135 155 136 149 149 157 151 144 151 141 169 162 171 158 171 159 177 155 172 183 146 162 152 151 138 143 154 145 140 145 149 145 150 166 167 170 178 125 136 139 183 172 166 179 177 169 156 148 157 152 142 159 148 164 158 159 168 129 153 175 157 190 171 175 159 132 177 150 170 169 160 151 183 157 167 156 177 170 180 175 192 169 153 178 164 150 169 158 190 161 161 172 163 178 190 175 162 163 185 178 188 164 182 203 184 196 193 201 193 208 194 185 149 190 213 208 198 237 191 205 210 196 230 222 214 259 241 234 205 208 227 225 240 239 217 275 282 274 314 282 302 345 286 320 347 359 373 407 406 424 448 453 507 509 558 535 587 592 633 719 722 721 820 836 859 939 1037 1079 1081 1152 1205 1249 1313 1334 1443 1461 1448 1546 1586 1577 1534 1581 1591 1694 1731 1695 1687 1769 1780 1713 1671 1652 1738 1684 1680 1732 1645 1678 1624 1594 1528 1467 1527 1472 1396 1342 1267 1276 1296 1140 1149 1069 973 983 926 922 850 842 814 758 692 669 593 622 556 556 473 485 498 442 432 430 398 385 358 398 371 359 348 292 333 344 271 284 307 263 295 284 245 281 262 240 271 248 244 261 246 263 221 221 246 269 210 228 225 197 215 247 246 216 198 247 222 233 207 211 224 187 228 169 190 241 212 203 167 192 209 193 176 191 179 158 178 155 222 175 177 176 193 185 174 188 196 191 198 177 188 163 184 194 165 160 190 161 161 164 168 161 159 170 173 157 163 152 153 167 171 172 148 146 169 166 158 151 153 180 151 155 152 173 173 160 170 155 175 151 167 180 148 127 151 132 155 129 171 147 141 163 143 155 149 157 128 143 149 155 127 135 152 162 140 163 173 142 166 153 170 171 149 146 151 134 133 137 144 175 153 139 135 147 153 165 150 147 173 156 174 167 159 135 156 142 158 158 151 146 168 135 163 148 138 180 129 128 152 163 153 152 176 157 168 173 146 175 162 156 164 170 163 173 163 142 160 167 183 156 162 169 187 175 187 196 184 169 180 198 186 188 183 191 194 209 218 226 221 230 221 262 230 266 230 264 265 299 288 307 308 309 304 327 311 325 309 325 329 348 350 341 340 304 360 347 342 353 327 355 342 308 309 330 302 293 289 280 267 289 265 248 238 259 230 236 212 214 207 216 192 199 192 187 184 206 213 205 208 190 189 177 183 189 215 178 169 208 170 170 176 181 194 182 193 185 187 194 213 177 180 169 192 193 176 215 211 199 211 215 215 214 199 222 223 224 257 236 240 305 275 310 308 350 352 361 396 379 421 463 452 505 549 554 610 646 644 719 680 703 671 708 676 711 719 695 699 734 688 688 633 667 627 640 606 534 558 519 511 475 439 419 453 428 356 378 387 364 295 295 295 313 264 245 228 218 214 200 215 188 230 215 178 205 192 181 185 173 178 179 166 155 178 173 156 186 143 180 183 148 153 154 154 162 155 182 131 142 143 173 157 147 158 139 140 157 138 125 186 145 155 143 168 148 136 139 138 151 145 163 138 153 138 136 116 134 150 140 157 145 133 128 145 153 123 136 145 136 151 158 150 143 148 126 134 151 148 164 142 135 154 146 132 128 141 132 123 142 149 129 153 160 145 143 140 111 130 122 135 163 122 137 163 141 139 141 129 131 155 147 164 137 146 129 136 167 149 167 143 155 157 152 140 159 159 196 156 173 146 149 148 179 154 168 154 158 181 143 177 158 179 155 161 198 195 185 196 187 168 190 186 201 226 211 225 209 198 215 248 250 213 224 242 286 290 294 302 272 274 329 292 302 357 350 344 328 366 373 398 430 415 419 411 444 451 436 436 498 444 458 424 414 434 393 434 419 418 377 380 391 386 360 379 372 349 321 331 319 297 330 284 279 291 270 258 247 228 249 224 222 232 193 207 177 189 195 181 188 191 163 164 183 169 191 195 173 146 167 165 152 138 150 161 158 146 162 158 157 163 141 156 166 147 163 160 156 146 138 159 139 158 167 147 125 143 145 118 150 138 133 105 140 122 143 133 137 119 125 136 138 155 134 147 150 148 139 154 158 133 127 118 144 136 147 136 145 146 121 128 155 129 128 126 135 140 148 167 133 142 135 112 132 127 134 122 131 140 123 121 133 142 119 146 135 130 128 158 128 124 124 120 151 151 140 143 132 131 145 130 159 128 142 151 122 145 123 144 138 153 144 134 112 155 167 157 137 131 166 133 142 105 144 136 129 143 156 150 139 154 177 161 147 151 156 157 145 138 168 168 164 159 180 142 172 159 202 214 184 184 190 186 192 199 194 200 233 219 192 205 234 262 232 237 259 273 249 319 300 320 314 353 353 373 381 384 429 426 481 521 506 551 579 575 632 681 682 731 700 790 803 841 920 903 908 928 988 999 1012 1014 1038 1083 1003 1068 1005 980 985 1003 1016 926 978 886 933 842 857 822 826 759 725 678 726 681 647 624 605 568 560 532 488 483 442 436 397 421 348 345 317 311 333 323 319 307 300 276 242 245 235 229 194 240 209 230 207 187 191 194 205 178 187 196 185 194 179 165 191 202 148 156 171 151 179 169 145 153 141 168 147 153 172 153 158 175 138 141 142 178 137 145 165 139 141 162 139 155 131 137 137 150 153 123 162 160 164 159 132 142 143 164 148 111 145 147 138 130 159 175 154 148 144 149 126 146 161 160 144 136 171 139 148 124 137 123 161 156 170 133 143 139 151 167 131 155 118 135 129 131 122 144 146 137 133 140 130 145 138 141 144 124 136 131 148 129 122 135 119 122 131 139 114 138 126 125 115 125 139 123 130 137 144 120 124 158 119 141 128 129 164 143 154 129 142 110 122 151 146 138 164 137 147 150 131 159 157 153 170 154 165 141 160 163 167 163 140 153 179 163 137 153 165 159 173 175 180 183 185 178 192 193 174 184 205 218 208 195 222 188 226 222 234 266 270 273 319 278 304 287 277 347 327 337 325 387 347 359 381 406 360 392 414 434 428 438 505 505 506 515 503 524 500 470 506 522 495 497 499 428 486 481 496 474 490 485 444 431 409 384 387 419 381 392 363 347 363 355 318 349 337 321 343 300 308 282 307 281 284 281 265 288 306 246 246 244 262 238 250 273 243 218 249 265 264 246 263 266 273 234 266 264 213 271 267 250 263 258 284 294 321 320 333 361 346 365 354 366 400 407 448 485 526 551 544 584 651 704 720 754 820 810 887 922 1008 1079 1057 1158 1221 1166 1246 1311 1300 1361 1371 1344 1348 1354 1328 1359 1305 1385 1426 1323 1279 1253 1220 1202 1185 1148 1157 1144 1070 989 1039 952 916 808 795 811 743 674 694 651 618 570 597 555 505 472 401 431 435 426 407 348 313 338 335 323 335 278 274 249 268 265 294 256 192 227 231 247 233 230 205 209 207 209 179 196 204 184 168 189 182 185 163 184 163 167 147 170 180 170 140 136 164 158 169 164 164 147 151 146 186 151 146 172 148 140 158 156 126 146 133 149 132 131 139 157 143 114 132 140 144 141 118 149 133 119 139 146 144 132 152 146 139 130 145 115 125 135 181 134 134 143 135 138 139 139 140 158 129 143 142 129 159 135 129 125 125 138 124 111 141 131 133 133 127 124 128 139 128 147 131 145 136 160 151 137 123 155 126 160 130 141 132 160 129 156 137 150 143 153 139 150 154 139 150 141 167 155 162 132 136 161 164 179 159 175 158 185 166 147 167 172 168 164 160 180 159 147 139 150 155 175 134 156 151 162 159 144 163 148 155 160 143 126 130 152 147 149 149 143 144 122 137 136 152 134 125 142 132 147 130 145 137 130 103 139 156 130 116 132 124 120 127 115 128 122 124 116 118 140 133 126 126 113 132 144 149 137 110 134 124 148 130 123 116 129 131 141 113 121 140 133 117 156 122 122 145 140 146 128 124 128 136 125 144 131 130 151 137 118 123 125 123 144 147 134 126 144 123 127 146 149 132 141 134 135 143 124 130 155 137 124 130 148 128 129 134 139 137 104 136 117 126 131 158 139 134 145 151 131 133 127 115 123 121 102 116 122 137 138 140 116 136 147 137 134 127 125 134 113 139 127 126 138 139 118 116 101 106 128 114 120 116 128 137 107 115 124 114 135 145 132 112 135 119 120 117 131 126 149 121 123 124 135 133 133 121 123 117 122 141 140 137 117 122 137 136 118 115 123 158 157 154 130 142 130 134 138 151 137 125 149 139 130 149 158 158 158 139 138 154 139 131 122 139 145 136 149 156 136 129 135 116 146 142 133 147 134 112 147 143 131 138 120 121 125 126 135 120 126 133 106 134 152 119 132 138 132 133 122 117 132 122 122 124 121 134 123 129 110 120 127 120 127 144 131 124 114 128 120 133 149 115 135 135 120 134 112 117 117 119 132 109 127 141 129 146 142 123 127 127 119 115 117 137 119 138 106 133 110 133 119 141 138 117 133 129 112 127 130 133 124 119 134 119 132 144 143 145 136 126 129 134 116 180 151 128 139 149 127 129 119 132 120 118 135 141 138 120 108 146 119 142 122 126 144 125 162 115 132 123 126 123 108 136 142 125 127 142 119 127 136 121 136 130 123 130 141 146 147 148 143 143 140 129 135 136 123 136 133 131 142 138 117 142 137 133 123 148 157 148 135 156 138 148 142 130 136 135 149 135 154 141 146 126 135 150 142 149 132 162 155 173 154 147 140 165 134 164 138 152 122 143 142 126 147 137 152 155 155 136 133 142 131 132 145 138 122 132 147 145 160 145 149 129 153 143 145 137 139 114 134 144 153 132 133 155 152 159 154 148 146 159 150 166 158 172 155 144 139 171 161 157 157 166 157 147 173 172 196 185 178 192 174 189 205 187 179 224 179 184 196 226 184 190 214 191 184 199 181 222 213 207 201 205 192 193 214 183 189 200 205 198 205 180 182 208 191 147 199 137 172 175 149 190 204 155 153 185 197 170 179 169 193 174 157 171 155 189 157 177 178 155 186 167 165 155 159 174 139 177 158 170 153 149 139 188 144 141 143 164 141 150 144 163 162 152 147 159 145 137 156 154 157 152 135 149 158 159 154 137 121 123 153 151 143 122 152 141 124 138 171 157 137 131 160 141 136 135 144 146 135 155 162 141 139 158 136 145 142 122 155 148 132 155 147 128 134 148 163 128 146 109 140 137 137 148 144 159 150 143 145 152 171 164 151 155 153 174 158 126 136 160 141 168 147 152 142 173 155 142 174 163 140 147 160 166 177 172 173 149 175 160 175 158 152 147 171 148 191 185 191 176 177 176 189 192 211 181 171 208 199 191 190 192 216 216 175 197 211 195 239 262 256 233 259 257 256 263 228 231 232 206 230 256 260 241 240 228 276 278 209 242 250 230 219 276 247 230 226 236 209 240 196 234 206 202 200 258 219 208 203 211 203 199 171 211 186 201 185 195 194 180 165 193 183 169 178 163 142 156 156 143 153 151 140 145 167 141 139 145 143 125 136 142 130 150 136 112 138 153 131 142 151 130 133 141 124 115 125 134 129 132 129 117 119 137 135 154 159 112 129 130 117 133 109 121 121 132 117 126 133 122 144 119 122 109 138 136 129 124 117 121 114 119 129 122 118 125 143 118 125 121 121 133 127 107 146 124 114 127 133 129 114 123 120 134 133 116 123 103 117 133 117 117 138 125 122 148 119 136 122 123 116 104 136 125 118 113 107 113 150 116 125 123 108 111 157 125 137 133 119 101 107 120 118 118 132 126 130 115 124 120 110 122 132 135 134 113 125 118 100 149 135 118 134 127 120 114 124 135 125 130 128 129 144 140 118 137 112 114 111 125 135 136 121 126 135 123 140 128 136 140 127 145 144 124 134 134 107 120 102 124 130 132 111 133 121 122 137 131 124 134 134 150 113 114 150 119 141 126 131 129 127 117 108 125 123 127 117 133 121 125 119 106 107 115 117 125 106 125 120 121 118 105 113 124 143 109 103 130 115 131 113 122 121 112 127 114 113 97 142 145 119 140 112 138 133 122 135 138 134 107 137 108 102 122 118 135 109 130 128 103 116 102 128 123 106 112 100 134 116 128 107 104 98 93 143 129 114 126 115 128 110 126 102 117 137 99 122 129 130 116 132 117 116 122 127 114 134 120 124 102 125 129 119 134 129 106 106 127 116 117 142 117 121 128 142 128 122 131 125 110 136 127 119 118 114 128 115 116 123 96 111 128 108 111 125 101 119 117 136 111 129 133 133 112 128 128 110 143 129 124 143 131 119 109 118 115 148 138 131 128 148 135 141 158 137 105 150 150 139 141 157 154 147 152 132 174 155 163 155 154 145 159 182 184 163 188 169 169 172 170 168 171 208 180 203 205 230 225 262 237 241 269 275 277 306 306 340 349 341 381 370 392 432 400 472 479 497 459 489 563 526 550 543 562 589 576 599 622 589 641 610 601 619 624 604 534 571 559 583 554 496 561 585 505 561 526 502 484 482 507 471 452 411 439 388 398 388 357 387 320 374 321 333 335 299 269 272 244 247 280 273 257 205 238 195 219 211 218 194 168 194 189 198 216 181 184 179 163 169 159 156 187 176 150 185 127 147 153 153 150 144 154 143 122 142 150 132 144 160 152 135 160 159 150 135 140 149 149 137 147 143 133 134 142 144 153 162 143 155 160 147 158 120 161 164 132 148 139 140 139 168 133 162 146 177 152 153 138 142 145 158 153 154 141 154 180 133 154 163 150 181 155 170 177 190 185 181 200 185 185 219 179 196 203 199 207 195 216 198 226 189 230 201 236 235 221 223 229 210 243 234 213 214 246 244 243 239 231 233 257 232 216 229 262 259 271 261 243 259 265 260 240 261 290 268 235 293 266 240 264 278 264 264 236 295 285 314 292 292 287 326 322 278 297 305 300 285 284 315 291 337 336 316 303 290 281 272 301 281 282 320 259 291 319 303 274 285 269 267 260 243 259 274 232 217 258 232 246 218 237 230 230 216 216 213 190 194 224 206 209 197 193 189 204 190 187 162 137 196 176 157 181 177 133 160 157 163 155 145 146 152 148 155 160 175 171 151 159 155 139 140 152 134 138 156 133 137 129 136 128 150 114 126 141 133 132 124 153 122 134 122 122 123 127 132 100 138 140 141 123 128 124 111 135 131 126 116 103 107 137 111 129 111 107 130 125 129 124 126 148 135 113 100 121 97 125 125 115 122 124 127 123 112 132 114 102 106 125 130 118 128 114 132 116 105 121 110 136 132 124 119 120 123 115 112 105 122 120 129 127 128 90 93 125 116 113 109 105 122 129 91 119 126 102 134 128 117 98 108 107 118 105 129 126 122 119 124 112 118 117 103 122 125 136 116 111 121 106 116 104 104 116 122 115 122 116 115 113 100 131 124 129 124 115 114 114 106 102 130 104 97 107 98 109 103 136 118 104 118 104 127 100 107 94 105 117 103 118 118 126 95 127 105 110 134 103 97 113 114 130 106 122 121 112 108 116 138 110 114 122 117 124 106 114 96 91 111 97 106 96 110 109 111 127 107 117 124 110 117 92 109 99 129 120 117 105 101 117 108 116 123 131 104 118 116 124 121 122 118 121 126 114 99 115 115 109 115 109 106 115 90 126 115 114 108 116 123 97 99 98 111 107 120 114 108 121 102 115 114 122 104 98 126 134 94 108 123 111 124 121 117 131 116 107 120 103 121 110 118 137 114 115 129 115 121 117 109 124 135 111 132 126 130 105 123 113 119 110 119 141 130 106 115 111 116 124 128 111 139 121 105 127 128 112 126 110 126 116 113 117 107 114 137 138 134 124 105 97 106 125 121 108 119 119 110 135 127 113 129 119 119 123 120 130 123 133 88 114 125 134 129 141 133 123 130 131 140 131 113 118 151 118 133 117 141 132 134 154 129 123 136 120 130 136 144 152 139 140 129 139 126 143 132 156 136 155 155 119 152 178 147 142 139 136 174 171 155 174 168 147 157 155 152 162 165 174 159 193 167 166 185 202 163 173 165 183 190 180 184 212 175 230 209 216 224 194 241 271 252 213 267 256 294 293 288 303 302 332 346 353 394 394 408 462 473 478 468 484 503 557 631 643 628 611 737 676 753 783 776 790 822 832 936 941 952 909 988 974 1024 1020 1038 1038 1018 1131 1046 1046 1039 1023 1112 992 1109 1063 1029 942 1084 955 1033 1038 1004 956 961 984 967 1014 949 981 908 916 862 917 810 893 846 817 793 813 700 735 683 706 715 659 589 549 605 561 566 495 524 558 524 483 488 442 459 434 427 429 406 373 396 356 364 344 330 324 343 315 304 329 285 324 302 296 281 240 241 265 249 247 266 227 242 226 238 230 225 194 210 207 201 199 195 204 214 197 214 197 202 187 197 180 184 199 187 184 193 219 193 198 187 213 194 188 218 201 193 184 196 181 223 198 194 200 195 194 208 196 187 186 209 200 181 163 177 195 191 189 170 184 172 179 181 171 188 177 162 177 183 171 166 155 174 153 163 188 164 155 150 154 154 162 152 172 167 146 137 152 136 136 135 145 151 138 132 125 143 130 140 140 135 158 133 150 152 158 141 110 131 149 133 110 102 119 108 134 122 139 126 136 127 117 135 133 117 140 147 139 149 122 152 117 130 121 158 143 128 110 125 153 131 140 113 125 124 127 134 137 132 125 107 130 122 141 122 144 122 123 124 119 140 149 124 146 126 129 141 127 118 128 126 126 124 124 138 142 151 123 132 122 100 136 140 120 136 122 114 122 107 142 142 136 134 151 128 120 135 126 133 134 123 130 124 112 117 125 121 132 118 124 112 123 118 140 137 138 131 124 139 126 141 115 121 122 137 137 147 130 124 145 143 136 145 128 124 130 128 152 147 136 153 130 148 142 152 157 118 150 166 154 164 155 142 145 132 157 149 148 154 165 139 135 152 149 158 162 163 185 138 170 174 164 155 156 148 153 141 145 199 142 142 173 153 134 131 147 151 140 132 150 139 154 158 124 128 136 146 129 119 152 161 133 149 124 137 126 138 134 143 152 143 149 127 147 128 139 132 139 150 135 113 123 135 129 127 132 151 132 135 139 143 136 153 142 160 128 149 181 141 163 170 160 134 145 171 176 154 163 149 153 182 153 163 161 164 196 205 183 172 195 199 210 219 216 207 205 205 211 216 251 242 269 238 269 246 276 285 283 297 296 358 318 336 299 373 359 393 381 399 399 392 403 403 456 452 504 488 447 484 498 481 501 508 561 556 563 596 568 572 564 552 552 570 580 566 555 570 612 548 562 574 491 557 552 547 516 493 518 499 522 498 504 499 493 479 415 427 418 398 434 402 409 396 414 381 393 380 374 368 338 355 329 340 322 312 320 285 285 260 271 296 277 277 273 268 280 272 257 245 217 235 249 236 223 250 213 194 236 281 264 233 232 229 216 249 209 227 234 236 242 193 200 250 267 230 241 250 212 259 197 228 195 212 239 212 226 220 209 201 215 220 230 243 211 190 183 215 226 215 201 203 190 203 194 205 196 172 170 177 177 179 186 149 181 179 177 179 178 172 171 176 189 149 171 148 145 149 158 129 144 151 142 160 146 128 166 143 142 161 142 125 130 122 142 146 159 135 138 144 131 132 109 134 132 153 132 156 126 125 130 129 130 121 112 122 126 124 125 150 150 119 124 144 154 118 145 128 118 135 123 133 141 138 121 119 133 141 143 133 121 116 128 133 117 120 117 133 117 133 117 131 121 126 134 116 133 131 135 126 126 118 106 114 112 122 126 120 112 127 125 132 119 137 120 121 115 121 128 93 121 127 141 119 148 128 102 134 125 97 122 127 114 123 142 134 130 113 118 90 108 140 108 114 128 119 138 126 123 127 127 119 130 125 141 132 114 134 115 129 117 108 132 123 118 130 119 125 102 121 129 132 131 141 114 122 132 116 112 127 138 119 119 110 107 113 112 124 125 117 134 110 135 131 119 144 124 112 123 125 125 100 111 112 131 133 119 120 135 143 136 122 108 131 122 112 134 130 128 105 142 113 141 117 131 141 125 142 128 138 138 141 158 138 119 122 126 149 120 133 140 135 147 146 152 135 143 145 133 149 160 133 158 153 159 139 144 130 150 151 172 141 144 162 152 158 145 142 174 169 161 181 157 158 171 169 150 166 172 159 170 155 187 182 182 175 194 169 185 178 185 210 191 175 197 178 229 190 219 169 199 185 213 207 184 199 196 182 222 200 210 225 194 213 231 207 234 228 195 192 209 193 217 204 179 218 195 191 199 173 197 200 221 221 200 180 208 201 183 187 182 177 165 196 164 174 201 191 158 150 185 168 182 162 168 177 155 155 170 172 155 158 146 164 147 170 149 151 155 163 143 154 157 149 150 147 141 148 133 151 140 128 147 132 145 154 161 130 149 131 135 146 141 134 141 147 135 127 116 161 163 127 134 148 131 154 162 147 160 127 119 134 150 149 143 134 154 146 171 131 164 154 141 175 167 158 153 139 163 191 175 169 174 147 157 173 187 200 217 197 203 206 241 221 212 217 226 226 232 234 238 280 274 270 288 272 282 305 294 319 328 320 348 337 307 315 327 339 348 345 307 349 331 329 338 303 339 337 313 340 321 340 314 329 305 305 306 313 288 327 261 305 328 294 295 267 284 279 259 284 229 248 272 258 231 248 236 217 248 229 247 211 201 195 225 209 183 186 181 177 180 179 187 170 183 188 193 174 177 172 159 165 155 138 144 143 156 153 148 140 163 171 152 166 130 143 159 137 142 151 142 142 141 125 126 135 132 127 126 141 131 138 127 133 133 139 131 147 157 136 125 132 120 145 132 131 150 133 125 123 140 144 117 154 135 135 149 146 132 122 129 134 126 128 136 136 135 136 133 147 134 135 144 139 130 124 147 141 140 164 135 147 139 167 149 164 138 159 145 154 122 175 147 156 175 163 126 158 149 142 151 154 183 171 158 155 193 158 163 162 179 159 155 155 155 162 153 163 160 171 162 157 170 192 136 155 153 142 156 167 159 141 160 154 117 141 146 145 148 147 164 144 151 178 176 159 148 165 170 141 142 150 154 171 177 156 150 155 168 169 158 165 169 185 139 155 152 151 167 168 164 186 168 168 189 195 212 180 196 187 182 211 192 182 178 192 203 214 199 215 206 229 230 212 229 248 220 222 248 230 231 230 277 245 222 290 270 307 301 308 319 319 333 360 391 368 433 397 395 427 409 463 401 451 447 481 459 551 466 499 508 475 501 478 496 547 510 503 429 502 463 474 517 494 462 452 441 432 477 471 400 444 391 408 422 419 408 414 380 398 356 382 368 358 366 357 347 334 350 317 339 300 325 288 273 243 285 264 247 274 245 207 231 228 221 237 237 195 204 226 197 186 190 212 175 188 180 170 171 169 165 179 172 171 167 172 179 189 190 165 160 175 171 175 154 153 160 178 183 180 179 172 147 164 169 166 161 125 160 166 169 145 153 156 173 169 202 149 153 161 166 173 171 173 153 183 165 151 160 173 154 192 151 157 128 169 162 144 152 147 141 144 157 160 152 138 162 161 149 126 151 143 148 168 146 136 144 149 145 140 151 148 142 133 156 160 129 156 164 157 139 154 149 140 136 123 151 142 134 144 140 148 144 169 113 144 146 152 139 150 118 121 141 140 143 154 152 116 167 132 133 134 140 145 131 162 149 150 147 167 155 188 129 137 139 148 159 147 151 153 152 163 172 157 150 175 176 183 159 180 166 203 193 192 212 243 213 205 219 233 238 286 274 285 302 286 309 337 363 394 399 378 401 441 457 466 489 499 517 587 551 566 572 646 626 610 649 643 616 614 637 641 662 660 580 603 636 550 583 628 549 589 555 530 580 564 522 579 543 558 529 507 498 521 570 487 493 497 433 477 493 425 408 403 402 400 410 372 393 359 358 309 316 317 304 303 316 245 266 257 207 237 205 232 221 209 212 193 212 201 190 197 169 187 188 177 171 172 156 197 149 197 154 166 145 132 149 131 139 155 143 140 135 138 148 150 119 118 146 138 161 143 131 141 139 113 136 126 139 128 136 123 121 116 136 111 139 144 127 121 124 136 113 114 121 107 126 115 144 138 134 109 133 152 134 123 121 114 125 138 129 121 116 130 114 129 112 120 123 112 117 110 134 107 122 124 113 111 131 139 118 116 128 118 135 119 117 125 120 111 119 111 114 117 124 121 110 126 133 105 102 117 126 131 121 119 139 119 122 129 140 118 144 130 105 130 134 152 143 134 129 159 159 145 130 125 144 154 131 147 123 140 159 140 150 130 132 159 147 176 149 164 153 164 166 148 187 156 172 172 159 168 162 166 160 157 142 180 182 156 173 197 174 198 175 179 189 166 177 173 161 161 150 158 163 150 178 170 185 157 174 160 149 172 164 172 161 145 153 159 160 170 154 153 136 158 152 138 144 167 154 126 164 154 148 128 138 156 154 140 115 126 141 133 162 153 137 128 132 138 134 147 132 129 133 166 126 131 135 153 139 135 144 150 128 145 128 138 136 145 134 168 158 143 161 137 152 141 154 159 150 157 174 145 149 168 175 161 198 186 187 170 172 171 175 184 182 189 205 204 192 199 188 187 214 192 193 213 210 210 226 248 231 244 214 227 214 242 262 281 265 231 247 256 249 279 267 267 272 259 276 247 278 247 275 285 259 262 285 266 261 286 264 239 259 267 236 273 278 257 263 267 264 262 274 276 291 258 274 284 276 236 229 283 235 269 275 285 278 245 248 262 248 250 236 249 250 271 249 220 249 247 248 229 248 221 225 229 218 233 232 198 201 228 218 196 220 213 191 187 201 178 237 197 218 224 183 178 212 202 195 200 191 183 196 183 201 160 172 174 157 173 176 179 162 151 192 175 155 174 168 169 152 149 167 162 151 148 170 169 163 190 139 143 163 176 141 187 139 148 156 125 157 158 150 145 138 146 152 157 134 160 136 168 137 130 139 137 136 130 146 147 132 129 145 142 150 123 139 140 136 131 130 144 128 122 129 144 139 130 135 152 128 114 137 117 131 120 123 141 130 139 116 115 122 136 131 135 142 125 125 118 109 124 131 139 137 134 132 122 145 133 143 139 137 126 125 113 134 139 118 143 129 140 152 107 116 158 133 119 134 141 129 128 116 131 130 137 136 141 111 145 128 119 125 124 147 125 129 124 137 126 120 131 131 127 132 131 122 110 124 135 155 131 143 125 133 133 122 143 136 123 100 119 110 119 134 117 120 151 127 155 131 112 136 121 115 125 117 121 115 117 122 137 130 124 128 112 133 100 112 138 99 126 128 103 132 124 132 133 119 108 124 130 136 135 123 101 125 109 117 124 115 131 131 116 128 112 123 134 114 107 113 121 112 115 105 121 132 107 128 130 112 114 110 129 97 120 128 131 106 131 114 114 107 123 110 110 111 103 121 114 104 112 119 119 125 119 109 125 105 114 109 102 122 134 116 101 119 122 109 100 114 108 98 107 114 112 117 92 106 118 103 114 127 95 101 112 123 114 104 128 93 111 115 86 115 107 103 112 124 110 119 111 110 107 115 122 112 126 121 104 116 112 116 110 112 131 93 111 116 110 107 112 119 110 99 118 102 104 121 120 92 109 98 115 107 101 107 101 111 108 126 96 105 118 104 99 111 112 120 91 101 119 118 120 100 115 116 118 105 123 124 110 125 125 115 107 114 106 125 105 126 112 104 127 107 121 108 109 119 95 108 116 120 95 112 131 110 109 132 120 119 132 123 131 136 115 120 108 140 129 143 132 114 121 133 138 140 131 142 142 139 123 125 114 120 151 151 146 147 150 163 151 156 138 178 132 152 155 150 164 159 144 176 180 168 168 175 177 170 179 181 196 195 161 176 168 200 201 216 197 215 231 231 200 211 216 239 221 220 228 257 225 242 246 263 241 241 257 263 240 234 249 218 278 286 239 271 264 270 246 273 287 275 280 269 251 267 273 275 264 280 285 272 251 276 257 257 244 269 287 264 263 265 269 258 213 274 289 265 257 282 233 266 226 226 210 257 238 261 257 259 235 231 247 250 236 210 230 237 227 215 262 199 237 204 237 247 231 227 248 229 241 282 212 233 206 206 249 234 225 224 207 224 212 240 228 247 239 190 223 238 227 248 230 258 239 243 229 200 225 225 207 229 241 248 222 248 212 247 238 229 249 237 222 211 222 245 216 224 221 195 236 218 219 235 205 206 221 223 210 175 208 202 260 201 198 200 197 207 192 214 188 201 193 190 206 211 202 206 202 214 202 180 178 190 198 180 168 194 213 162 176 169 198 194 153 177 181 178 171 159 152 165 180 160 161 147 154 190 146 173 159 155 134 144 175 144 141 151 147 158 141 137 126 158 157 164 125 146 148 134 119 127 134 139 125 132 137 127 151 119 144 113 109 135 140 117 123 118 136 129 125 123 108 116 133 149 128 132 137 128 139 131 120 118 115 117 130 129 149 135 113 145 141 119 135 151 110 113 132 108 127 134 120 143 118 114 147 117 113 109 122 132 130 136 120 117 137 105 128 108 119 119 118 134 121</intensities>
			</dataPoints>
		</scan>
	</xrdMeasurement>
</xrdMeasurements>
