<?xml version="1.0" encoding="UTF-8"?>
<xrdMeasurements xmlns="http://www.xrdml.com/XRDMeasurement/1.7" xmlns:xsi="http://www.w3.org/2001/XMLSchema-instance" xsi:schemaLocation="http://www.xrdml.com/XRDMeasurement/1.7 http://www.xrdml.com/XRDMeasurement/1.7/XRDMeasurement.xsd" status="Completed">
	<comment>
		<entry>Configuration=Conf. Reflection-transmission spinner, Owner=User-1, Creation date=2/28/2018 8:43:02 AM</entry>
		<entry>Goniometer=Theta/Theta; Minimum step size 2Theta:0.0001; Minimum step size Omega:0.0001</entry>
		<entry>Sample stage=Reflection-transmission spinner; Minimum step size Phi:0.1</entry>
		<entry>Diffractometer system=EMPYREAN</entry>
		<entry>Measurement program=C:\PANalytical\Data Collector\Programs\sample-1.xrdmp, Identifier={BB6687EE-8248-4E06-B0C7-67735DEB5D7E}</entry>
		<entry>Batch program=C:\PANalytical\Data Collector\Programs\P3.xrdmp, Identifier={110013A4-273B-4C82-A4D1-871885B7687B}</entry>
	</comment>
	<sample type="To be analyzed">
		<id></id>
		<name></name>
		<preparedBy></preparedBy>
	</sample>
	<xrdMeasurement measurementType="Scan" status="Completed" sampleMode="Reflection">
		<comment>
			<entry>PHD Lower Level = 4.02 (keV), PHD Upper Level = 11.27 (keV)</entry>
		</comment>
		<usedWavelength intended="K-Alpha 1">
			<kAlpha1 unit="Angstrom">1.5405980</kAlpha1>
			<kAlpha2 unit="Angstrom">1.5444260</kAlpha2>
			<kBeta unit="Angstrom">1.3922500</kBeta>
			<ratioKAlpha2KAlpha1>0.5000</ratioKAlpha2KAlpha1>
		</usedWavelength>
		<incidentBeamPath>
			<radius unit="mm">240.00</radius>
			<xRayTube id="1010048" name="Empyrean Cu LFF HR (9430 033 7310x) DK427586">
				<tension unit="kV">40.0</tension>
				<current unit="mA">40.0</current>
				<anodeMaterial>Cu</anodeMaterial>
				<focus type="Line">
					<length unit="mm">12.0</length>
					<width unit="mm">0.4</width>
					<takeOffAngle unit="deg">4.4</takeOffAngle>
				</focus>
			</xRayTube>
			<xRayMirror id="27020009" name="Bragg-Brentano HD" hybrid="false">
				<crystal type="Graded" shape="Flat">BB/HD</crystal>
				<acceptanceAngle unit="deg">0.800</acceptanceAngle>
				<length unit="mm">55.3</length>
			</xRayMirror>
			<sollerSlit id="21010002" name="Soller slits 0.04 rad.">
				<opening unit="rad">0.0400</opening>
			</sollerSlit>
			<mask id="22030009" name="Fixed mask 10 mm">
				<width unit="mm">10.00</width>
			</mask>
			<antiScatterSlit id="22010003" name="Fixed slit 1°" xsi:type="fixedAntiScatterSlitType">
				<height unit="mm">1.52</height>
			</antiScatterSlit>
			<divergenceSlit id="22010005" name="Fixed slit 1/4°" xsi:type="fixedDivergenceSlitType">
				<distanceToSample unit="mm">140.00</distanceToSample>
				<height unit="mm">0.38</height>
			</divergenceSlit>
		</incidentBeamPath>
		<diffractedBeamPath>
			<radius unit="mm">240.00</radius>
			<antiScatterSlit id="22090010" name="AS slit 8.0 mm (PIXcel)" xsi:type="fixedAntiScatterSlitType">
				<height unit="mm">8.00</height>
			</antiScatterSlit>
			<sollerSlit id="21020003" name="Large Soller slits 0.04 rad.">
				<opening unit="rad">0.0400</opening>
			</sollerSlit>
			<detector id="7010019" name="PIXcel1D-Medipix3 detector" xsi:type="rtmsDetectorType">
				<phd unit="%">
					<lowerLevel>25.0</lowerLevel>
					<upperLevel>70.0</upperLevel>
				</phd>
				<mode>Scanning</mode>
				<activeLength unit="deg">3.3482</activeLength>
			</detector>
		</diffractedBeamPath>
		<scan appendNumber="0" mode="Continuous" scanAxis="Gonio" status="Completed">
			<header>
				<startTimeStamp>2025-12-28T16:33:07+08:00</startTimeStamp>
				<endTimeStamp>2025-12-28T16:44:39+08:00</endTimeStamp>
				<author>
					<name>User</name>
				</author>
				<source>
					<applicationSoftware version="5.5a">Data Collector</applicationSoftware>
					<instrumentControlSoftware version="7.9j 20171025">EMPYREAN</instrumentControlSoftware>
					<instrumentID>0000000011214615</instrumentID>
				</source>
			</header>
			<dataPoints>
				<positions axis="2Theta" unit="deg">
					<startPosition>6.00558257</startPosition>
					<endPosition>75.99655438</endPosition>
				</positions>
				<positions axis="Omega" unit="deg">
					<startPosition>3.00279129</startPosition>
					<endPosition>37.99827719</endPosition>
				</positions>
				<positions axis="Phi" unit="deg">
					<commonPosition>0.0</commonPosition>
				</positions>
				<commonCountingTime unit="seconds">13.770</commonCountingTime>
				<intensities unit="counts">569 615 596 600 558 604 569 590 579 598 584 591 540 601 588 581 614 629 574 558 580 534 610 625 550 586 623 604 585 558 582 593 561 620 604 560 613 562 573 612 605 586 574 571 592 530 603 560 584 581 586 564 576 563 573 564 572 553 567 510 538 560 549 575 571 578 588 535 563 563 574 577 557 577 574 564 572 568 575 551 553 517 558 567 543 508 547 536 578 555 570 552 577 560 534 529 592 614 543 590 521 578 564 544 525 573 564 507 529 574 572 545 574 545 527 587 577 536 509 578 494 571 516 543 517 522 562 549 520 546 509 506 558 563 534 524 565 543 576 577 532 547 557 602 546 535 545 526 524 516 589 521 532 501 555 562 531 551 511 555 561 543 595 512 538 568 513 535 556 510 542 516 534 528 514 563 512 532 507 506 567 522 512 531 537 531 512 523 503 509 542 544 522 531 539 526 520 517 524 517 565 525 492 547 548 563 534 532 536 529 573 536 519 499 548 499 513 487 499 539 531 551 537 545 540 524 535 508 511 527 554 530 530 526 519 558 530 527 514 505 499 507 478 479 571 529 511 526 512 502 506 508 535 547 514 542 513 512 527 523 603 499 486 502 477 503 516 523 537 553 517 498 487 551 506 547 533 532 510 501 529 496 497 491 575 494 502 512 504 535 526 539 528 528 479 515 462 501 521 534 476 506 515 543 513 491 488 498 494 514 493 489 520 533 520 501 486 485 513 507 539 509 546 508 477 505 525 500 540 545 511 538 527 495 493 504 507 520 518 475 512 486 499 487 549 472 504 496 477 483 513 473 516 524 536 495 446 496 500 490 506 507 511 473 530 509 477 516 517 485 526 463 518 496 496 499 508 470 493 471 492 517 483 500 520 487 479 528 465 525 455 489 554 490 472 511 469 455 478 491 455 482 501 484 526 478 479 505 413 438 530 482 463 481 464 519 471 475 488 482 483 493 529 468 518 492 498 486 484 492 506 474 474 489 469 494 469 480 498 463 480 521 476 505 491 506 490 500 504 453 453 446 453 485 495 415 501 494 521 478 469 474 481 457 489 500 442 437 511 461 476 443 492 510 468 512 431 474 468 462 456 466 496 490 469 478 471 471 475 470 467 463 432 509 501 447 489 497 462 461 477 458 487 474 452 462 481 453 455 473 486 468 476 473 437 445 465 457 465 506 458 481 477 452 488 500 481 483 423 443 441 456 496 473 461 466 431 499 470 506 470 481 427 477 474 466 441 470 486 446 481 475 468 466 418 441 457 491 472 459 459 432 452 449 447 459 500 432 454 467 484 443 443 450 452 449 461 479 473 462 492 430 465 478 463 438 444 435 439 452 430 496 441 406 444 481 472 430 444 446 435 452 456 452 467 466 446 455 434 456 443 468 453 413 468 458 424 438 441 427 469 482 460 449 457 464 430 431 477 415 425 432 465 461 471 433 432 458 457 442 428 437 439 422 453 438 431 429 444 472 429 462 452 427 455 410 439 451 435 421 449 451 419 417 466 422 408 443 453 462 431 412 441 401 406 408 429 418 439 420 407 430 447 468 491 415 396 421 414 447 469 443 442 415 444 432 415 433 414 438 415 419 404 442 438 436 423 401 418 414 418 432 445 447 447 447 414 435 415 436 410 418 387 404 433 437 434 442 420 435 449 432 435 395 420 425 423 488 452 429 421 408 403 417 430 447 434 417 419 409 421 430 409 404 427 406 408 410 435 397 381 398 447 413 389 438 421 434 420 430 436 411 390 391 440 454 422 408 395 389 398 408 435 412 460 386 398 410 414 399 445 406 407 433 458 394 395 436 377 389 410 416 383 432 406 435 416 402 377 408 427 416 375 387 395 418 435 386 383 389 404 405 425 401 403 401 390 399 428 398 386 412 408 391 419 366 392 391 424 421 419 410 408 404 399 399 413 399 406 382 372 404 411 404 396 415 381 379 387 416 345 420 385 393 394 415 384 391 446 373 431 415 379 417 424 358 397 386 404 416 376 398 391 366 347 375 432 409 393 379 384 411 392 382 410 387 387 412 379 377 407 389 397 401 353 395 373 356 395 375 338 376 375 356 372 380 377 358 419 388 372 395 401 348 414 392 394 384 348 361 387 381 371 389 361 378 415 373 366 359 385 377 372 384 367 388 371 414 363 389 380 366 356 341 400 406 374 377 405 389 372 390 381 333 383 392 343 418 404 395 388 341 386 394 368 399 379 345 341 353 416 360 357 407 379 355 372 375 344 388 340 379 363 404 404 392 347 379 343 368 349 359 368 355 392 370 344 358 325 357 383 393 357 354 356 373 362 380 369 356 380 354 353 376 338 363 331 387 381 353 324 373 328 398 374 365 386 361 330 329 348 342 360 352 352 351 357 342 359 356 325 329 365 382 366 379 366 353 396 397 341 345 406 343 355 374 360 394 338 346 363 354 341 366 333 338 365 387 335 313 360 313 360 341 343 308 337 326 346 338 325 349 319 342 372 323 336 371 346 334 378 333 311 343 329 329 347 370 319 329 346 345 337 308 368 332 374 355 347 336 356 299 361 337 356 315 377 348 343 371 371 355 344 328 350 311 311 353 361 389 345 348 367 359 364 368 364 337 354 351 304 350 331 308 346 339 330 349 348 341 346 330 319 332 348 354 350 315 377 348 331 367 345 352 322 300 323 329 347 337 316 298 314 297 308 343 292 361 323 354 340 331 354 319 313 363 322 322 355 374 335 333 335 323 326 321 348 355 287 344 323 337 338 322 320 352 331 322 355 319 343 321 353 314 303 310 328 306 328 353 303 346 308 350 330 321 348 324 313 292 328 297 312 335 326 330 326 333 321 318 342 338 316 351 363 340 309 356 358 346 304 335 317 280 328 338 325 344 324 309 299 360 361 347 318 346 356 335 306 336 306 345 311 287 308 351 366 327 332 320 317 305 322 318 306 321 346 316 300 326 304 319 304 327 325 344 331 328 292 326 294 305 323 340 328 320 323 332 304 296 323 337 311 320 375 338 325 276 333 283 319 349 318 304 331 312 287 332 320 328 332 296 323 327 323 304 348 348 315 301 303 323 362 320 323 322 321 309 294 366 327 359 301 312 333 315 321 358 309 317 330 308 282 336 307 330 319 347 312 335 319 313 310 300 310 317 319 307 300 325 322 312 334 339 348 300 344 350 332 284 321 313 347 301 274 310 340 335 320 317 343 318 311 308 318 346 290 302 312 331 295 285 301 322 291 321 302 309 309 312 310 335 323 319 305 287 299 310 329 317 342 309 282 350 312 288 312 315 319 319 306 291 334 348 304 307 316 298 335 294 307 327 367 330 317 347 302 308 335 317 314 337 308 288 342 305 299 325 313 310 311 294 302 298 307 312 325 316 310 323 299 311 309 290 356 313 326 317 300 291 323 333 322 300 295 316 298 320 294 336 341 294 317 302 341 353 328 333 317 268 319 307 310 334 311 295 306 317 302 301 292 310 316 307 308 287 334 314 303 317 281 298 318 291 311 305 304 319 299 293 325 288 314 339 319 321 304 292 302 313 330 304 329 249 331 292 311 294 302 299 313 301 290 316 280 317 311 298 305 301 314 324 294 311 308 306 327 303 270 316 292 275 303 303 352 308 293 291 310 323 318 329 307 348 307 311 309 288 335 341 275 314 285 289 311 315 317 318 291 292 336 304 332 288 293 338 299 274 334 342 290 336 319 303 298 301 307 292 278 316 286 325 311 314 303 321 301 298 321 302 307 312 283 338 315 305 323 326 324 322 329 353 274 354 328 322 321 316 322 300 318 296 309 294 326 287 307 298 300 291 300 323 301 303 303 316 328 328 322 344 318 281 286 303 300 336 306 286 326 303 291 320 296 310 296 311 287 303 316 325 308 295 334 284 338 289 297 300 312 291 314 304 276 299 292 320 331 291 321 348 292 339 309 319 265 296 309 302 292 345 326 292 291 289 337 324 344 346 289 281 321 306 300 323 296 339 322 326 295 290 286 334 315 300 265 331 305 330 346 325 312 307 311 310 363 273 287 314 318 282 297 308 285 280 327 289 312 331 336 305 338 321 343 317 290 320 316 316 275 293 322 300 316 332 304 296 313 312 296 348 288 308 307 340 321 313 330 337 306 320 360 323 287 304 315 327 328 320 311 318 316 295 287 311 319 297 337 310 317 316 337 295 291 314 312 328 309 319 312 338 297 305 295 314 292 317 279 355 300 347 341 315 284 346 320 296 303 311 325 292 353 305 311 320 348 333 301 300 310 314 340 323 306 309 298 311 301 323 308 338 318 311 322 350 320 358 336 331 348 342 316 329 366 305 310 292 324 330 306 308 322 317 344 358 334 345 307 309 306 318 326 348 325 318 329 309 332 315 320 305 327 345 298 325 342 351 363 318 328 295 334 310 321 366 309 328 296 334 334 334 292 303 343 335 325 307 337 300 316 302 340 318 342 352 345 277 320 326 354 324 304 341 308 335 336 336 332 341 321 282 318 346 337 332 351 329 335 320 318 369 305 309 261 314 347 349 342 334 326 347 325 304 335 315 348 338 335 347 340 330 337 339 320 349 325 362 344 298 362 327 327 373 332 356 331 316 339 324 331 329 325 338 307 340 318 336 353 337 318 380 327 345 352 327 329 316 333 311 316 354 330 350 333 307 358 314 327 318 349 330 333 321 321 338 337 354 345 350 314 324 340 334 323 365 330 356 305 369 328 328 346 327 320 332 366 372 338 360 336 335 333 328 340 359 354 321 339 365 357 360 339 341 337 351 329 358 304 322 326 358 346 360 350 357 337 331 339 350 299 340 334 316 323 313 354 321 344 385 334 329 344 363 350 329 326 339 375 350 322 352 348 336 340 343 327 375 340 338 337 338 339 350 334 342 342 343 368 330 336 324 353 358 346 307 326 327 316 345 314 317 335 349 369 383 342 311 369 319 333 352 334 354 336 385 309 346 341 336 317 320 336 345 317 324 363 316 347 349 356 321 355 327 307 334 332 345 335 345 338 371 365 333 322 314 364 331 338 342 324 338 364 333 359 362 333 329 366 360 319 335 329 331 346 340 338 375 307 347 348 342 336 318 306 339 337 386 351 322 336 333 351 360 317 327 330 317 334 366 326 354 331 368 351 343 347 328 325 302 327 353 363 367 355 363 325 371 326 353 335 352 346 332 348 347 359 319 331 353 339 335 361 358 328 349 348 345 316 304 355 360 337 367 329 349 343 317 321 370 369 322 334 336 312 333 326 311 323 355 333 357 351 349 356 371 384 369 353 340 330 353 321 321 359 335 326 325 338 362 340 330 375 348 336 333 359 289 354 336 314 333 339 353 344 362 330 369 346 341 325 337 357 350 338 343 348 350 344 331 354 324 354 320 351 367 314 294 309 345 342 322 318 359 346 369 351 343 350 351 355 316 354 366 363 299 351 328 367 330 375 343 359 367 301 312 335 363 372 361 353 353 321 344 388 389 346 334 344 343 377 367 358 328 338 335 307 375 366 354 352 344 352 343 318 374 328 359 347 338 333 353 357 333 336 371 356 327 364 333 323 342 331 319 322 370 309 345 330 349 348 343 379 384 320 343 342 326 359 340 344 333 323 319 345 313 327 360 320 352 327 362 317 331 342 336 355 292 343 351 332 353 335 333 332 360 336 342 334 359 336 284 306 368 334 332 352 321 322 356 335 336 352 363 319 337 340 334 347 318 357 333 326 349 324 318 364 323 361 346 305 359 341 362 341 326 337 321 349 374 331 319 391 288 374 352 344 335 318 326 361 309 387 329 322 358 326 344 304 323 341 386 342 362 370 355 375 300 340 347 354 338 354 386 339 337 331 336 330 345 345 311 354 323 319 303 315 324 368 365 337 349 346 324 343 343 341 329 339 350 331 315 319 363 336 351 336 363 375 326 330 342 326 343 330 339 353 331 349 312 327 323 354 316 307 338 320 329 337 318 332 350 327 288 343 321 363 321 350 333 321 298 345 324 312 330 351 343 313 328 306 318 339 306 293 334 331 335 338 354 351 344 336 351 320 349 294 338 321 330 359 303 338 355 329 318 336 317 337 333 321 300 326 340 339 360 311 354 323 302 337 350 298 348 325 355 339 327 294 347 349 299 331 328 354 291 358 318 350 333 343 339 334 313 320 304 314 340 346 327 351 329 329 298 297 337 317 349 313 338 324 319 327 347 355 343 353 307 325 289 324 339 316 309 348 313 329 345 319 329 314 314 337 322 325 331 331 303 321 308 321 321 312 338 381 320 322 312 302 304 335 341 320 285 322 281 306 299 337 328 305 283 319 310 313 315 330 311 318 365 333 344 319 304 408 320 321 343 323 336 306 298 293 314 297 313 304 335 328 330 314 300 326 351 343 267 327 313 315 335 318 347 285 333 325 336 292 333 303 315 321 308 312 315 318 336 351 314 353 314 312 302 322 332 339 318 315 320 329 329 345 332 308 354 287 315 331 301 349 330 322 308 334 337 343 348 308 304 332 315 324 310 294 295 308 345 318 330 314 341 286 318 284 300 341 320 297 330 317 307 351 305 314 352 305 312 306 311 323 315 316 292 298 308 306 306 311 316 297 311 303 354 300 337 300 346 311 287 341 290 324 344 320 298 332 290 315 319 300 337 331 324 317 317 329 306 314 316 329 315 325 315 282 293 309 351 317 303 331 316 329 305 329 340 351 306 330 296 288 330 308 338 303 357 346 305 294 341 306 343 334 318 304 302 319 328 368 332 330 328 346 285 298 355 340 297 363 334 330 322 308 333 347 304 332 306 293 305 279 323 328 318 355 332 322 324 293 367 322 322 266 291 294 320 332 288 318 308 351 306 300 301 323 308 284 314 314 320 332 271 327 306 307 322 322 332 276 314 328 284 325 303 293 296 321 349 330 274 293 335 320 306 356 303 323 317 319 309 337 301 307 294 289 310 327 331 320 321 315 313 341 313 333 294 280 297 309 296 303 305 302 323 288 295 287 286 337 317 317 315 286 301 336 309 294 326 289 292 317 307 321 321 283 352 299 302 311 324 281 301 290 286 314 317 293 308 284 284 300 325 325 315 311 298 305 289 316 315 315 288 318 300 306 324 310 320 336 319 301 285 302 308 316 324 286 293 296 316 324 302 322 305 300 297 302 308 315 312 305 308 352 287 323 278 316 329 328 280 340 302 301 298 290 317 311 309 304 299 287 303 282 303 291 311 318 337 322 286 284 297 282 299 294 306 289 325 275 342 278 302 296 335 302 284 277 313 330 310 314 312 282 309 283 302 294 291 313 289 307 324 323 305 300 300 311 333 296 307 286 304 296 292 281 283 282 306 289 292 267 298 287 319 318 305 283 281 322 296 314 308 298 328 314 288 329 329 265 285 288 310 303 308 319 310 310 288 295 350 276 275 268 298 304 285 319 334 324 268 278 314 308 304 278 263 301 291 292 297 340 323 310 330 325 266 287 270 317 295 304 282 288 292 319 305 305 297 298 294 308 314 296 319 277 300 304 285 243 279 300 309 314 299 306 270 304 296 307 309 334 288 257 319 277 263 307 280 302 299 296 310 309 291 269 294 292 240 275 289 306 290 278 321 292 323 311 324 320 319 287 307 293 286 271 307 305 257 269 294 308 287 304 298 299 306 301 284 287 283 288 289 305 292 289 283 292 285 305 301 297 310 279 284 291 342 274 292 312 297 310 288 297 249 287 272 293 301 276 307 279 275 299 335 296 303 293 290 291 278 307 279 315 282 310 311 292 262 287 304 305 307 283 301 343 290 308 288 269 304 308 313 280 267 267 270 289 319 269 272 293 291 290 256 292 283 265 307 303 330 339 272 295 280 298 296 302 295 292 300 314 301 332 286 247 286 310 304 305 330 292 297 312 307 294 296 285 299 298 281 285 312 281 311 298 282 270 302 262 293 318 318 282 286 287 293 288 247 324 293 317 313 303 278 319 306 316 320 295 282 299 290 292 313 279 308 280 301 290 299 295 323 278 293 285 309 295 243 266 277 284 310 308 295 301 301 332 313 292 284 246 316 320 319 283 267 306 288 338 291 264 305 294 317 314 327 287 290 272 300 285 288 260 281 272 318 308 266 326 265 296 268 308 299 319 285 300 306 291 284 301 310 281 283 308 310 293 290 258 305 282 302 286 319 284 279 298 315 308 292 283 298 313 306 309 313 294 275 297 284 307 271 311 281 271 305 280 297 297 265 273 318 318 288 314 328 293 293 275 280 287 329 313 292 314 298 295 270 307 326 286 267 297 288 304 300 301 290 290 313 319 336 281 302 283 280 276 301 298 305 304 314 310 238 281 313 318 279 307 303 300 257 308 295 272 276 296 319 301 301 301 316 316 303 306 298 264 280 301 276 265 264 278 270 316 273 291 286 282 276 314 298 311 310 278 302 292 291 340 318 298 295 285 294 301 327 316 332 315 300 332 268 297 307 299 318 331 308 291 281 286 328 292 277 304 274 297 282 281 306 307 300 326 290 292 291 324 298 280 312 285 307 297 305 290 296 277 307 325 317 287 296 321 297 287 297 287 293 315 297 289 319 340 261 305 288 322 301 307 281 301 299 290 311 300 315 290 259 291 264 312 325 309 304 263 309 287 295 309 298 302 301 294 297 311 314 280 328 310 284 290 282 296 334 305 314 314 302 276 335 291 305 279 326 249 323 300 308 295 309 313 295 309 303 320 355 329 315 296 283 302 297 279 314 312 307 273 323 332 317 322 322 278 322 330 291 297 319 300 336 299 275 277 313 303 322 322 308 283 373 306 306 354 284 320 328 316 307 288 295 279 304 305 323 304 307 351 325 286 291 309 299 311 314 305 303 298 290 313 298 302 295 296 282 333 310 330 262 377 269 318 309 274 304 334 299 302 304 303 315 317 310 275 307 250 312 322 282 294 299 271 311 300 299 281 293 297 303 304 302 328 307 295 285 288 297 323 326 283 300 306 293 290 286 302 308 283 288 300 314 315 304 301 316 301 336 325 330 288 327 283 295 347 290 309 281 335 319 320 305 295 306 313 294 308 302 300 288 288 344 283 284 319 285 309 346 308 275 320 306 306 308 292 317 282 278 290 292 308 282 296 334 312 289 338 316 294 316 311 317 310 330 315 307 291 328 308 285 328 334 297 308 295 292 308 297 326 320 277 285 331 335 289 337 333 293 320 314 290 313 332 325 317 323 326 278 315 280 292 327 297 300 304 314 310 306 339 268 319 283 292 292 288 334 314 308 302 325 296 316 315 314 307 299 329 291 320 308 310 268 303 308 323 295 331 332 308 339 300 325 303 302 326 295 317 306 306 317 316 333 277 317 279 292 309 316 298 310 332 319 293 299 303 294 298 309 339 299 309 299 296 320 306 301 282 266 328 324 290 282 288 292 307 309 289 277 265 319 285 312 283 281 335 291 295 291 316 304 331 295 299 284 264 310 299 308 287 287 277 304 306 322 298 336 343 289 341 292 313 289 311 301 290 284 313 307 295 291 332 299 303 288 289 271 295 280 313 294 284 280 312 315 290 333 286 287 329 298 301 295 304 307 288 285 312 322 315 299 307 311 326 308 283 290 294 310 309 297 333 335 307 314 337 285 275 286 283 299 323 292 312 262 311 278 274 320 292 309 288 304 292 274 276 274 331 312 315 323 273 296 282 313 307 329 309 305 309 307 278 351 259 271 286 299 267 290 279 305 283 282 263 312 299 282 299 328 294 298 296 289 280 310 316 302 258 275 274 276 262 300 294 296 293 278 308 298 341 314 282 287 313 312 305 272 305 290 303 315 294 283 286 272 288 287 261 280 300 284 275 290 278 301 301 310 321 275 294 289 309 289 314 318 320 297 299 267 297 308 273 297 271 280 273 297 301 319 290 296 294 324 323 302 312 318 314 335 327 309 314 281 315 273 299 308 273 276 272 287 276 293 303 326 313 287 268 286 273 298 308 300 259 314 289 276 300 292 307 309 273 297 328 305 307 278 321 293 321 316 299 323 346 303 293 267 291 324 287 332 302 318 301 312 304 295 348 326 301 305 333 302 347 309 350 280 301 303 321 287 331 288 332 300 317 296 303 293 313 285 308 311 303 302 289 293 295 320 317 321 295 317 286 326 293 362 294 290 318 299 287 350 301 303 317 307 316 299 305 319 313 328 307 305 297 280 307 333 293 318 313 305 300 320 307 331 316 311 283 304 316 345 315 333 306 334 299 352 310 354 315 324 323 337 314 347 321 341 326 338 322 356 339 320 304 318 306 307 285 302 323 328 323 342 325 327 339 335 314 291 310 345 325 322 328 317 305 339 297 314 324 299 310 323 282 320 320 284 346 316 317 330 309 311 305 305 307 316 291 310 330 314 333 319 297 329 340 301 341 320 342 277 332 330 292 316 303 309 304 336 277 265 314 379 361 297 292 327 311 309 338 370 316 310 314 315 329 326 358 313 310 304 326 312 339 338 305 299 323 330 323 302 329 308 311 328 308 312 346 325 297 343 303 349 322 336 334 307 338 326 346 330 312 342 313 353 324 328 321 324 338 320 314 363 321 334 369 340 334 329 358 329 313 321 330 316 293 337 332 298 354 344 330 339 332 343 350 316 331 296 330 318 348 322 331 326 351 310 372 315 366 337 323 340 334 324 326 360 308 300 327 352 315 317 340 311 385 337 328 327 350 320 322 356 347 329 338 345 327 341 332 348 372 353 335 326 353 358 347 341 378 317 340 314 322 335 355 352 332 315 341 344 334 322 333 285 312 338 315 357 335 342 366 334 351 328 350 365 336 323 334 358 352 323 329 299 363 359 283 337 329 326 334 324 351 310 320 341 331 314 328 311 343 344 355 332 348 363 314 382 360 319 318 338 358 343 370 343 359 324 338 299 391 349 361 324 328 341 324 343 340 363 364 343 343 326 350 356 333 326 325 305 308 355 333 342 321 334 345 354 340 346 357 333 335 326 310 342 355 320 346 321 355 332 309 329 341 322 349 313 335 296 297 332 339 338 340 314 326 313 323 358 296 359 330 304 292 320 295 329 309 288 325 293 276 317 317 294 335 351 320 315 328 311 311 310 311 320 316 300 292 294 311 316 286 299 315 294 316 294 275 301 323 305 307 317 280 241 299 300 292 295 292 249 307 298 304 320 293 302 283 329 266 307 294 290 304 284 283 291 306 304 309 284 338 300 294 262 277 275 299 283 244 315 304 270 297 300 283 272 307 272 293 277 288 256 296 301 270 307 297 302 267 238 284 284 259 288 274 289 287 278 260 316 269 273 282 256 304 280 248 283 273 288 295 301 244 275 264 265 293 270 237 316 303 271 288 256 263 257 270 257 272 271 259 284 244 307 246 299 247 269 239 267 245 284 274 266 275 299 247 299 274 286 262 262 261 248 286 271 289 261 311 294 303 289 276 280 264 273 257 284 275 269 265 275 273 301 310 282 264 291 307 280 268 263 298 269 297 267 262 278 283 245 292 260 295 286 275 289 280 294 283 306 265 249 270 271 275 301 280 267 280 293 293 285 278 244 281 280 289 290 272 318 284 294 262 273 305 265 256 281 282 279 303 283 262 270 294 273 264 248 316 284 307 290 299 265 284 297 306 283 287 312 239 281 237 282 284 276 321 263 289 267 297 288 276 270 309 291 248 294 284 266 297 288 234 268 308 269 271 235 267 247 280 290 257 256 249 263 256 302 278 277 278 291 279 295 266 265 287 272 258 258 292 272 228 274 287 271 268 261 285 262 279 272 242 282 245 270 261 265 275 264 261 271 242 233 250 237 276 258 262 228 239 271 270 260 247 263 236 272 277 221 246 230 242 273 222 256 234 248 258 284 242 265 236 237 241 232 239 237 247 234 229 223 223 216 220 247 247 235 245 231 221 273 261 224 218 244 222 216 224 213 237 214 220 236 240 221 205 227 256 280 265 246 247 238 267 240 270 193 230 235 232 267 259 256 240 249 211 215 191 267 234 225 236 244 234 227 233 209 223 224 234 227 218 244 221 240 220 233 233 213 259 207 215 212 222 213 279 241 218 236 230 207 263 215 242 213 232 247 219 232 230 239 227 239 229 247 234 229 269 237 256 224 229 232 210 222 218 241 273 205 205 232 237 273 215 224 223 204 286 213 232 226 228 220 225 227 237 234 225 216 231 197 239 210 246 231 215 238 212 244 236 189 209 209 215 232 216 244 252 205 185 239 227 242 202 247 232 234 216 214 225 215 237 220 230 212 222 222 259 228 216 243 218 219 211 209 238 194 212 233 216 208 233 228 226 212 239 232 224 224 216 235 216 224 220 204 234 224 221 205 189 225 237 213 211 231 218 221 201 219 214 199 214 208 204 202 223 224 214 197 195 211 215 198 214 223 192 221 225 216 235 187 213 210 198 214 203 197 223 218 208 209 217 221 212 216 222 214 202 204 208 206 228 199 210 232 217 225 215 239 209 236 223 204 218 243 225 222 216 184 241 212 221 218 225 193 224 233 231 233 207 217 216 235 197 209 188 196 270 213 193 221 239 222 224 211 189 216 210 214 224 229 217 203 193 217 197 209 216 220 220 210 201 206 202 225 200 196 218 214 242 217 215 177 202 207 225 209 201 203 223 208 226 234 217 226 208 240 197 224 207 193 211 226 185 207 216 181 226 215 180 218 203 215 214 210 207 224 204 209 194 221 208 217 177 212 232 212 211 222 232 214 208 234 208 199 215 228 232 217 225 201 220 224 216 184 196 187 218 209 210 248 220 187 198 198 225 188 230 220 212 209 208 191 220 204 186 188 204 212 211 231 237 232 209 212 222 208 195 203 228 220 226 222 214 221 229 210 236 225 213 230 210 206 209 221 199 204 208 208 227 211 205 205 219 224 223 222 206 223 193 205 222 192 227 231 196 237 218 236 241 230 241 224 222 235 248 226 236 210 235 203 202 200 231 212 211 231 240 224 240 219 214 220 248 206 206 211 231 220 231 207 218 232 218 223 226 210 239 209 202 197 197 214 250 237 243 206 213 234 241 222 211 212 198 229 234 205 226 202 206 219 213 241 214 204 239 243 218 216 234 219 206 236 204 224 212 224 215 228 229 201 245 216 208 203 210 244 245 236 235 262 209 220 231 230 214 241 233 224 211 218 248 244 223 221 218 230 204 228 221 229 230 279 229 236 221 219 219 209 256 249 231 222 240 231 263 267 233 261 237 240 236 229 257 251 263 268 247 270 273 233 277 242 265 294 273 243 243 258 268 276 230 283 274 246 256 262 299 282 274 269 274 307 265 278 284 289 313 277 294 274 292 316 303 303 307 285 331 291 312 279 290 283 301 305 288 295 259 264 300 279 257 264 262 281 294 286 263 257 278 292 288 270 262 283 296 263 282 312 278 274 275 260 257 278 292 267 282 299 281 277 296 235 328 245 282 250 282 287 258 323 264 269 315 275 271 263 302 304 275 289 249 295 300 292 286 260 284 288 289 302 292 276 308 306 310 267 296 293 270 288 333 302 290 277 281 299 311 303 309 290 316 326 287 273 289 302 307 333 331 300 297 340 313 288 307 301 323 301 303 305 300 304 332 314 302 293 311 305 322 335 313 318 329 325 329 335 357 325 314 318 324 325 289 370 298 333 343 306 310 320 320 344 323 347 342 298 338 312 364 348 345 356 341 332 329 307 317 351 315 337 350 339 346 295 348 315 377 348 352 362 361 371 350 323 352 353 328 337 323 325 352 345 350 346 348 348 355 321 343 351 321 317 352 337 315 372 310 367 347 365 337 348 341 358 368 342 370 346 347 294 337 344 324 358 372 352 373 354 320 325 336 307 298 298 343 317 321 349 298 382 316 317 285 322 318 371 327 330 313 355 345 358 285 320 323 336 316 305 319 316 320 293 331 304 312 328 338 327 302 339 294 324 310 306 294 303 299 296 324 312 290 333 332 309 313 290 277 281 305 340 303 282 256 340 318 316 275 287 319 244 338 324 317 265 315 286 312 312 300 315 289 275 293 297 296 274 269 256 286 308 308 333 267 297 291 277 285 281 295 228 242 266 269 283 282 290 285 260 280 273 273 257 277 247 264 225 277 278 258 278 269 257 240 283 207 237 269 257 243 229 241 261 228 291 238 240 244 268 242 247 219 248 240 238 237 266 270 205 215 257 279 280 234 243 240 239 232 245 220 217 231 227 221 219 221 212 225 231 238 244 244 239 243 233 222 226 215 208 214 237 204 264 216 244 198 198 194 225 215 222 223 224 202 220 208 235 225 212 204 226 217 212 203 212 212 210 224 213 227 219 205 219 187 200 213 212 218 193 207 212 219 194 206 223 202 230 218 229 218 185 211 203 200 207 190 217 164 192 212 196 202 188 226 211 209 215 220 210 203 196 204 192 209 208 209 197 216 224 179 182 208 184 197 181 214 201 191 219 211 200 198 199 213 192 218 175 172 194 219 189 174 173 199 205 205 201 201 219 206 190 176 183 192 196 205 213 210 193 187 196 188 192 179 189 202 181 185 213 209 200 194 186 185 187 200 178 194 200 207 211 193 199 179 211 200 204 211 189 177 189 200 204 188 180 187 187 174 221 206 182 182 181 201 197 189 198 196 192 192 164 203 185 186 174 201 191 183 209 182 191 188 186 182 168 195 169 183 195 198 201 200 207 199 194 204 207 176 203 196 186 177 177 203 196 176 217 211 182 180 162 193 178 180 193 196 190 196 215 165 162 154 179 192 184 194 198 181 185 190 193 168 169 188 186 192 197 174 191 189 184 189 188 176 193 145 158 193 154 162 170 183 191 171 177 177 202 183 174 183 170 195 202 190 151 180 183 181 165 178 169 178 166 185 201 167 198 154 197 192 179 185 217 177 186 172 184 181 161 188 190 173 162 159 192 164 179 169 176 168 197 156 184 181 161 178 164 188 151 189 189 173 186 175 166 163 168 194 157 187 171 183 169 164 168 176 193 153 185 169 146 176 172 172 183 162 174 168 178 188 167 157 169 186 164 169 180 190 160 169 188 175 163 173 157 151 148 153 173 170 154 179 171 172 180 168 172 154 164 157 160 165 179 172 169 155 176 151 167 174 174 178 165 215 140 168 178 170 171 161 164 156 179 170 193 160 144 159 191 167 141 175 164 173 153 176 153 160 161 191 180 171 164 156 150 155 157 191 168 185 166 166 145 190 161 174 169 175 193 169 148 176 172 171 169 171 156 171 185 187 174 172 177 183 155 211 197 161 153 168 155 169 162 185 141 163 160 148 152 169 162 162 179 157 193 181 152 192 175 173 185 155 164 186 166 165 165 164 147 163 140 161 182 146 172 173 160 152 181 147 169 176 166 165 173 172 149 144 187 190 172 166 174 166 160 157 166 176 173 154 192 156 145 173 131 181 162 164 160 151 171 179 180 161 174 150 182 130 165 179 173 160 172 198 187 163 174 178 150 211 183 164 156 165 161 165 154 181 173 137 187 154 175 172 185 151 174 179 145 167 164 184 154 143 144 168 192 190 153 136 156 187 155 155 152 160 142 182 149 141 154 143 152 154 160 155 143 176 157 155 169 173 187 181 166 171 199 157 172 169 169 155 157 168 173 158 160 164 137 165 154 144 155 155 188 166 153 143 173 176 156 150 163 170 167 185 160 182 168 147 169 186 148 183 158 168 161 163 163 179 163 157 160 171 183 155 184 159 153 161 153 170 141 153 142 146 164 175 143 157 151 159 165 176 174 148 158 162 173 177 159 162 169 171 167 155 159 159 161 174 162 177 152 173 157 186 142 161 158 161 143 175 157 164 160 166 144 153 177 169 166 152 154 160 159 165 181 163 153 136 169 173 161 176 174 154 175 186 178 137 158 170 163 183 178 165 166 152 142 163 154 164 177 169 165 165 171 168 189 152 142 157 158 148 151 189 151 140 150 142 154 148 155 171 164 141 168 155 139 165 168 171 164 169 153 167 123 154 174 153 183 192 168 139 152 179 150 175 170 195 151 160 180 137 166 150 160 159 162 150 189 159 175 148 141 181 161 183 157 153 158 149 165 152 152 185 137 153 167 163 185 168 171 169 175 174 162 151 174 178 163 175 157 161 156 168 167 150 174 162 157 166 153 165 163 154 167 178 160 176 172 170 150 177 142 171 182 161 168 145 164 154 188 208 170 162 171 170 168 152 174 163 171 149 159 142 175 188 170 167 177 168 158 168 178 172 158 148 169 198 177 142 140 164 142 160 166 158 137 164 142 151 159 179 169 143 170 163 177 143 175 157 156 169 126 165 184 161 134 162 179 176 160 156 146 168 167 148 173 147 166 160 160 181 177 166 162 156 165 178 161 176 174 189 145 143 163 160 171 156 179 146 170 143 157 178 185 173 141 164 160 170 163 142 165 175 180 171 189 159 160 163 165 164 181 162 177 156 177 174 161 159 180 157 180 166 161 176 159 180 186 178 160 188 148 155 150 163 160 177 194 163 146 168 158 166 158 162 161 172 141 157 176 154 171 161 156 175 144 146 165 156 144 159 159 158 159 170 154 169 162 161 176 166 166 150 187 156 152 145 169 190 169 167 178 172 169 193 163 158 158 167 176 151 156 155 141 171 161 158 174 140 175 171 155 180 183 154 165 167 178 172 175 162 186 164 166 159 152 149 154 177 162 162 155 179 174 167 167 159 165 174 209 167 159 166 153 165 149 154 200 146 169 178 173 184 171 147 166 161 148 152 175 178 158 159 164 178 144 159 176 180 169 167 167 150 164 165 136 171 155 149 180 163 160 166 164 166 153 166 161 162 162 141 158 176 140 160 160 176 175 158 173 167 161 218 152 144 172 158 150 177 203 147 186 155 137 175 181 151 177 144 173 146 164 174 162 154 160 170 158 154 157 132 166 162 164 166 179 157 163 161 142 157 153 155 171 174 167 162 153 142 177 158 170 176 167 173 177 138 172 162 173 171 175 158 165 171 183 170 154 164 171 184 164 151 162 179 187 174 156 159 169 177 185 157 157 162 173 156 161 166 166 188 175 164 162 174 150 168 176 185 183 169 149 175 152 186 169 175 160 160 140 187 170 161 170 172 156 178 173 166 179 170 181 182 139 202 161 131 159 186 158 160 164 151 177 168 170 154 176 172 197 182 162 156 179 168 150 176 167 154 169 188 177 219 173 166 153 185 170 173 146 170 183 163 148 173 173 194 179 182 166 157 182 193 177 148 187 173 166 156 155 159 167 179 177 151 178 179 186 183 178 170 161 174 176 149 173 166 161 168 141 171 153 146 157 165 151 169 167 163 186 164 174 151 188 144 170 164 197 155 171 182 171 174 171 160 176 171 189 191 156 170 156 184 182 168 160 181 156 180 173 153 176 186 174 142 174 160 177 176 187 173 181 175 170 178 174 172 170 159 181 168 162 161 163 154 163 174 157 171 180 162 163 158 181 183 170 176 194 180 190 170 180 180 170 160 156 180 180 159 173 169 177 168 178 169 180 166 139 144 154 162 185 197 175 173 161 159 190 177 174 166 177 182 170 158 183 198 154 182 156 191 169 194 168 169 177 171 181 173 181 176 180 166 192 173 179 174 171 154 154 171 137 188 172 179 172 196 174 198 169 177 194 188 180 175 161 179 177 182 192 167 163 191 171 189 178 184 180 167 176 187 196 150 184 178 169 176 172 183 181 176 151 198 186 190 190 202 186 187 177 173 186 176 186 182 193 149 160 213 164 175 202 158 165 179 189 157 169 180 210 180 168 159 166 180 173 195 160 197 199 179 171 208 182 183 179 167 198 182 176 186 186 198 177 176 172 165 179 176 184 175 180 190 189 173 171 176 210 174 202 170 152 172 187 169 171 155 164 173 182 194 183 173 197 178 183 194 140 163 196 173 173 183 177 177 175 168 169 180 202 169 168 166 186 162 159 190 209 178 183 196 183 177 167 194 186 169 180 192 167 172 152 183 198 180 190 189 170 195 168 185 211 201 165 173 177 176 181 189 141 202 190 165 174 171 172 168 201 189 177 178 191 188 200 164 185 189 174 178 158 185 192 184 198 182 167 207 161 217 189 162 172 178 163 196 167 193 178 154 194 189 170 182 166 190 163 177 184 167 193 184 191 167 179 172 191 179 193 179 193 188 195 179 179 165 199 171 158 178 194 191 196 200 159 198 189 189 189 198 173 188 175 167 191 156 194 168 198 185 173 186 159 196 181 185 168 181 172 186 157 189 179 204 192 179 194 201 177 195 196 196 199 187 182 179 171 170 195 206 188 202 198 177 196 207 187 176 178 194 178 192 163 197 190 162 214 199 185 157 172 175 159 168 186 163 172 175 191 191 163 199 180 170 182 180 214 206 185 191 194 201 180 203 170 210 191 200 178 194 181 174 199 186 198 161 203 161 205 197 204 204 183 194 193 190 191 203 189 195 191 189 183 216 194 208 206 194 175 194 178 196 184 207 171 206 200 201 203 198 232 197 181 191 197 184 174 211 166 184 218 180 205 189 173 207 198 188 166 189 188 180 178 199 175 201 184 179 201 166 217 212 197 199 177 180 216 189 188 183 197 177 200 173 189 182 192 194 185 197 190 188 176 197 191 208 216 202 181 177 201 207 188 179 195 176 197 166 201 194 205 188 214 194 165 191 208 193 184 213 187 195 197 181 200 205 204 192 204 206 208 187 183 198 197 214 202 224 209 210 215 203 176 201 204 197 205 236 214 196 207 212 203 199 204 217 223 199 218 228 206 214 207 186 174 183 193 212 206 206 222 181 212 198 234 168 178 187 188 220 198 195 180 236 203 205 197 186 197 197 225 191 214 188 214 201 204 219 222 211 202 226 197 228 218 237 188 208 225 183 197 212 181 213 206 197 199 205 220 194 189 230 220 175 193 187 212 208 183 206 239 187 184 208 184 209 206 202 212 213 188 216 185 240 222 245 194 197 219 210 208 219 216 220 225 191 213 240 199 207 214 218 200 209 210 227 204 219 207 214 242 204 218 198 223 204 216 210 231 208 207 211 200 217 205 204 206 180 216 225 217 205 231 233 199 197 186 191 220 212 196 196 188 192 182 204 210 186 224 192 206 212 198 217 214 197 222 223 202 209 227 211 240 212 211 172 204 209 231 219 194 232 219 183 228 214 212 171 219 209 184 201 183 202 215 195 202 229 191 216 213 214 212 218 178 227 208 206 184 228 206 196 187 204 227 201 222 189 184 211 205 205 226 211 184 200 205 177 217 201 196 206 218 209 199 206 204 224 204 215 201 211 193 228 202 228 207 177 219 193 197 198 185 206 195 193 180 216 187 198 180 215 194 203 224 209 191 205 206 226 208 216 214 205 184 197 188 225 220 229 218 214 220 224 193 191 183 194 195 213 202 197 197 225 181 196 170 179 189 177 208 205 192 189 201 174 209 191 198 198 213 188 194 227 196 217 187 196 205 213 195 199 212 195 182 188 205 199 214 173 206 198 186 207 181 181 198 201 189 196 186 212 216 199 194 196 189 180 214 206 213 211 204 224 217 196 185 175 204 190 197 206 208 197 217 187 184 228 195 217 179 190 188 202 206 225 185 213 175 208 173 218 193 203 191 178 209 213 183 194 208 200 199 211 208 207 202 183 223 204 229 207 229 199 223 224 180 204 202 205 212 210 224 195 211 206 208 196 221 206 207 197 193 190 191 204 218 186 207 201 198 193 208 190 190 209 201 211 205 211 196 209 214 212 202 215 188 194 201 198 202 176 207 205 205 207 234 219 180 207 200 188 200 208 210 220 180 171 198 206 240 199 185 188 198 216 187 182 203 224 196 209 190 211 197 214 224 184 199 188 229 198 192 169 202 211 205 194 221 189 185 215 191 195 192 206 210 219 188 219 217 205 214 239 184 228 193 210 196 179 208 207 210 179 209 194 216 213 210 183 205 204 205 216 191 191 192 200 203 213 215 211 190 188 184 196 194 201 207 202 172 196 196 177 193 183 217 169 229 178 187 208 209 188 190 196 188 195 208 198 193 206 192 207 202 195 201 236 179 211 200 211 192 187 216 231 188 213 213 213 216 213 235 202 199 184 198 190 211 207 203 233 220 203 179 220 194 180 191 207 215 189 212 237 225 222 233 210 221 207 205 236 224 212 226 190 185 263 222 209 220 210 196 215 225 216 220 237 205 231 218 222 191 214 218 223 229 197 221 169 210 209 200 216 229 218 227 214 260 210 197 245 262 207 222 205 208 228 207 208 206 211 221 236 229 228 187 210 232 213 232 218 224 228 196 221 208 220 226 206 222 223 193 200 234 216 226 233 223 206 238 231 220 233 264 219 218 208 230 228 233 238 221 226 180 236 239 217 218 222 187 226 259 225 263 229 218 224 240 246 211 231 237 236 240 231 263 203 234 221 224 242 229 262 240 228 230 215 242 221 226 242 233 207 217 233 203 244 202 212 272 267 237 267 221 213 232 208 226 223 235 239 256 250 241 235 224 266 249 243 238 231 231 239 257 238 244 238 240 236 270 263 235 219 239 234 262 231 244 276 273 242 263 249 275 239 256 258 248 244 280 241 267 259 234 220 256 263 207 242 279 263 263 292 246 260 286 263 256 266 295 262 263 291 268 285 264 233 276 270 258 250 273 300 283 291 239 284 249 296 262 276 275 286 271 268 274 279 258 266 289 249 279 261 294 285 287 276 256 304 291 272 288 256 330 300 303 319 275 301 328 291 271 281 302 296 311 281 284 276 289 304 277 257 290 303 310 311 320 290 309 284 274 332 297 295 316 296 285 318 313 305 319 333 319 295 299 341 321 313 367 323 326 349 299 345 338 316 378 315 327 309 351 338 315 307 339 339 332 349 370 333 333 342 365 392 380 363 332 395 326 333 359 359 329 357 382 373 388 371 377 347 352 355 351 355 368 379 382 387 359 361 372 374 338 365 339 373 383 382 356 369 409 362 400 373 379 383 387 356 367 399 365 360 372 408 387 358 383 397 361 344 400 397 383 360 381 383 397 377 383 372 364 369 414 351 389 414 359 416 391 371 391 361 370 378 426 410 376 392 424 363 431 377 396 404 401 357 392 379 443 383 388 388 366 404 370 407 391 378 382 401 366 406 394 371 381 389 365 445 388 391 390 387 374 359 335 361 374 354 371 365 358 378 385 367 382 395 372 384 362 338 310 352 326 340 363 376 343 362 336 390 362 381 354 328 352 350 350 383 347 335 329 328 346 360 354 328 345 366 354 374 304 310 350 310 327 321 312 348 334 342 340 303 321 336 318 330 325 298 333 288 293 316 321 298 289 290 336 298 285 272 301 293 298 295 316 310 295 298 277 288 262 286 301 264 315 285 301 289 311 300 274 274 285 304 279 245 291 303 284 259 271 294 268 284 260 270 236 303 220 260 265 260 232 243 263 266 268 259 268 247 225 251 277 216 248 274 220 244 232 236 211 238 235 229 221 230 269 230 232 236 279 218 209 258 232 225 240 243 233 240 243 265 213 231 203 207 235 215 256 260 249 235 223 264 205 245 217 214 217 216 232 207 227 213 235 211 229 230 243 222 228 231 224 221 206 221 203 218 203 222 209 209 194 196 220 218 241 183 179 193 197 223 183 222 206 197 202 214 206 192 225 172 214 187 216 234 185 213 207 184 198 214 190 214 212 207 183 210 191 207 183 204 221 198 224 187 192 210 196 156 195 195 206 207 184 180 193 210 197 178 193 212 183 190 195 172 186 187 206 185 188 197 171 174 188 182 184 221 190 201 177 195 188 206 185 188 185 199 187 194 206 205 161 195 172 187 197 210 192 189 222 174 193 200 187 205 173 170 182 173 177 168 183 187 182 176 160 179 170 187 187 178 214 207 163 190 178 161 188 182 209 172 180 185 162 184 177 200 190 165 155 163 184 194 184 205 185 188 174 163 178 190 168 182 208 198 183 182 168 177 164 157 179 168 187 196 189 164 184 157 183 161 164 156 174 170 174 172 176 159 198 168 173 171 155 184 153 150 168 158 206 171 175 200 172 172 156 162 170 159 174 154 157 170 165 187 180 181 171 193 160 169 163 187 186 151 163 174 173 173 153 177 145 159 153 167 186 163 183 190 159 160 171 202 163 188 175 159 160 165 173 170 178 165 141 165 144 169 189 175 172 167 168 178 183 154 167 137 158 169 149 174 147 177 165 185 145 157 174 149 156 147 175 186 158 158 156 163 173 137 180 171 154 164 145 160 180 160 172 162 158 163 160 141 158 184 150 145 170 189 183 153 141 155 153 162 172 169 153 178 161 161 161 146 148 172 161 184 162 161 148 183 170 185 156 172 143 155 151 173 161 143 165 157 186 162 141 148 151 168 157 173 171 161 152 150 155 147 160 157 167 154 171 161 150 152 147 158 136 160 143 157 171 151 154 179 151 135 152 193 143 163 159 162 176 151 137 150 177 156 150 166 158 158 169 171 154 169 159 147 156 166 168 139 171 182 143 144 153 149 160 151 154 157 160 164 157 148 155 152 140 175 155 144 159 169 177 148 140 152 159 165 133 160 179 148 154 144 166 170 154 156 145 143 162 131 158 139 151 145 180 150 177 166 175 172 155 164 142 182 155 150 119 135 149 183 141 146 174 147 173 170 137 166 158 161 129 166 173 143 153 159 171 149 158 149 157 165 159 150 158 152 146 134 158 154 136 136 142 156 144 149 137 154 165 161 160 156 158 172 156 159 139 146 135 141 171 154 127 155 148 141 161 154 151 170 172 166 157 150 145 141 165 146 153 166 152 151 168 160 154 175 137 168 155 184 168 141 179 137 158 151 157 140 161 166 136 140 146 136 147 176 148 159 144 143 162 140 147 136 160 156 138 144 139 164 150 145 146 158 156 146 140 127 149 166 150 134 151 150 180 141 142 140 185 159 125 146 158 148 141 149 128 148 136 170 163 144 142 148 160 134 144 136 154 164 162 153 165 160 152 144 138 134 147 131 181 158 128 137 141 154 164 146 123 163 134 140 129 120 135 125 150 165 161 162 144 154 152 145 128 144 160 150 145 134 160 122 153 158 148 151 154 181 131 152 143 132 125 147 136 152 137 166 116 134 140 130 163 147 155 138 142 174 158 149 144 145 140 164 151 150 158 147 162 154 162 135 169 164 141 126 153 130 153 145 139 126 156 153 153 133 160 160 148 141 129 141 153 133 142 149 162 163 163 132 144 130 142 155 140 149 149 178 177 172 159 143 157 142 156 143 138 161 145 144 137 159 134 153 156 116 124 135 143 151 137 131 147 140 150 156 137 140 137 137 129 158 137 146 149 145 160 150 129 143 139 155 154 141 146 152 157 142 153 125 148 177 133 146 146 152 174 153 167 143 150 135 128 131 154 156 157 149 143 163 140 132 158 152 142 157 142 155 129 164 151 160 130 146 137 150 140 133 150 149 154 139 134 132 142 147 150 143 126 139 156 165 147 153 161 139 116 132 146 144 154 137 154 169 169 138 141 128 135 170 138 162 156 130 153 149 148 162 143 139 158 167 110 117 171 130 152 131 145 152 137 148 140 153 148 126 174 137 145 159 154 147 125 143 128 164 148 134 135 150 149 137 122 127 127 138 139 133 168 127 139 127 146 155 172 136 156 157 131 139 143 134 124 147 158 135 156 160 132 145 141 137 135 124 149 141 150 142 131 168 132 125 138 157 152 117 133 153 145 149 136 143 148 154 143 120 157 123 155 142 125 127 143 165 154 130 135 140 127 133 125 123 138 148 121 164 129 151 130 132 142 158 163 146 163 144 137 144 136 117 149 153 133 160 143 150 148 118 138 133 151 131 141 137 128 135 137 132 143 171 132 164 148 143 140 142 141 141 165 147 137 145 135 130 142 152 161 153 141 162 145 131 149 128 136 169 142 159 149 157 147 126 135 140 124 152 151 136 130 134 142 128 154 157 126 133 146 132 154 153 145 151 133 150 158 144 129 140 147 132 147 129 133 149 164 130 155 127 123 146 149 133 159 149 150 128 141 126 130 149 163 138 154 140 153 159 159 163 162 152 154 138 135 145 157 146 141 140 161 138 145 132 117 138 147 132 147 158 144 125 140 142 144 144 126 159 143 125 119 164 135 147 143 136 123 151 131 142 134 110 130 144 155 156 147 147 148 125 133 128 149 152 146</intensities>
			</dataPoints>
		</scan>
	</xrdMeasurement>
</xrdMeasurements>
