<?xml version="1.0" encoding="UTF-8"?>
<xrdMeasurements xmlns="http://www.xrdml.com/XRDMeasurement/1.7" xmlns:xsi="http://www.w3.org/2001/XMLSchema-instance" xsi:schemaLocation="http://www.xrdml.com/XRDMeasurement/1.7 http://www.xrdml.com/XRDMeasurement/1.7/XRDMeasurement.xsd" status="Completed">
	<comment>
		<entry>Configuration=Conf. Reflection-transmission spinner, Owner=User-1, Creation date=2/28/2018 8:43:02 AM</entry>
		<entry>Goniometer=Theta/Theta; Minimum step size 2Theta:0.0001; Minimum step size Omega:0.0001</entry>
		<entry>Sample stage=Reflection-transmission spinner; Minimum step size Phi:0.1</entry>
		<entry>Diffractometer system=EMPYREAN</entry>
		<entry>Measurement program=C:\PANalytical\Data Collector\Programs\sample-1.xrdmp, Identifier={BB6687EE-8248-4E06-B0C7-67735DEB5D7E}</entry>
		<entry>Batch program=C:\PANalytical\Data Collector\Programs\P3.xrdmp, Identifier={110013A4-273B-4C82-A4D1-871885B7687B}</entry>
	</comment>
	<sample type="To be analyzed">
		<id></id>
		<name></name>
		<preparedBy></preparedBy>
	</sample>
	<xrdMeasurement measurementType="Scan" status="Completed" sampleMode="Reflection">
		<comment>
			<entry>PHD Lower Level = 4.02 (keV), PHD Upper Level = 11.27 (keV)</entry>
		</comment>
		<usedWavelength intended="K-Alpha 1">
			<kAlpha1 unit="Angstrom">1.5405980</kAlpha1>
			<kAlpha2 unit="Angstrom">1.5444260</kAlpha2>
			<kBeta unit="Angstrom">1.3922500</kBeta>
			<ratioKAlpha2KAlpha1>0.5000</ratioKAlpha2KAlpha1>
		</usedWavelength>
		<incidentBeamPath>
			<radius unit="mm">240.00</radius>
			<xRayTube id="1010048" name="Empyrean Cu LFF HR (9430 033 7310x) DK427586">
				<tension unit="kV">40.0</tension>
				<current unit="mA">40.0</current>
				<anodeMaterial>Cu</anodeMaterial>
				<focus type="Line">
					<length unit="mm">12.0</length>
					<width unit="mm">0.4</width>
					<takeOffAngle unit="deg">4.4</takeOffAngle>
				</focus>
			</xRayTube>
			<xRayMirror id="27020009" name="Bragg-Brentano HD" hybrid="false">
				<crystal type="Graded" shape="Flat">BB/HD</crystal>
				<acceptanceAngle unit="deg">0.800</acceptanceAngle>
				<length unit="mm">55.3</length>
			</xRayMirror>
			<sollerSlit id="21010002" name="Soller slits 0.04 rad.">
				<opening unit="rad">0.0400</opening>
			</sollerSlit>
			<mask id="22030009" name="Fixed mask 10 mm">
				<width unit="mm">10.00</width>
			</mask>
			<antiScatterSlit id="22010003" name="Fixed slit 1°" xsi:type="fixedAntiScatterSlitType">
				<height unit="mm">1.52</height>
			</antiScatterSlit>
			<divergenceSlit id="22010005" name="Fixed slit 1/4°" xsi:type="fixedDivergenceSlitType">
				<distanceToSample unit="mm">140.00</distanceToSample>
				<height unit="mm">0.38</height>
			</divergenceSlit>
		</incidentBeamPath>
		<diffractedBeamPath>
			<radius unit="mm">240.00</radius>
			<antiScatterSlit id="22090010" name="AS slit 8.0 mm (PIXcel)" xsi:type="fixedAntiScatterSlitType">
				<height unit="mm">8.00</height>
			</antiScatterSlit>
			<sollerSlit id="21020003" name="Large Soller slits 0.04 rad.">
				<opening unit="rad">0.0400</opening>
			</sollerSlit>
			<detector id="7010019" name="PIXcel1D-Medipix3 detector" xsi:type="rtmsDetectorType">
				<phd unit="%">
					<lowerLevel>25.0</lowerLevel>
					<upperLevel>70.0</upperLevel>
				</phd>
				<mode>Scanning</mode>
				<activeLength unit="deg">3.3482</activeLength>
			</detector>
		</diffractedBeamPath>
		<scan appendNumber="0" mode="Continuous" scanAxis="Gonio" status="Completed">
			<header>
				<startTimeStamp>2025-12-28T16:45:28+08:00</startTimeStamp>
				<endTimeStamp>2025-12-28T16:57:00+08:00</endTimeStamp>
				<author>
					<name>User</name>
				</author>
				<source>
					<applicationSoftware version="5.5a">Data Collector</applicationSoftware>
					<instrumentControlSoftware version="7.9j 20171025">EMPYREAN</instrumentControlSoftware>
					<instrumentID>0000000011214615</instrumentID>
				</source>
			</header>
			<dataPoints>
				<positions axis="2Theta" unit="deg">
					<startPosition>6.00558257</startPosition>
					<endPosition>75.99655438</endPosition>
				</positions>
				<positions axis="Omega" unit="deg">
					<startPosition>3.00279129</startPosition>
					<endPosition>37.99827719</endPosition>
				</positions>
				<positions axis="Phi" unit="deg">
					<commonPosition>0.0</commonPosition>
				</positions>
				<commonCountingTime unit="seconds">13.770</commonCountingTime>
				<intensities unit="counts">569 575 593 539 577 578 531 561 575 582 578 568 574 620 633 577 536 587 533 591 605 575 564 570 574 536 582 564 616 557 567 573 542 521 550 548 602 557 556 551 558 502 561 546 565 568 555 597 553 539 587 559 559 574 562 579 548 572 588 571 537 541 611 569 517 538 564 570 525 536 550 557 511 521 578 525 537 530 540 559 511 518 562 523 549 517 554 574 503 501 531 524 559 544 555 543 562 508 586 519 586 559 565 551 539 569 586 545 544 493 560 536 553 553 531 511 577 522 527 525 563 503 522 534 542 561 504 540 562 545 502 544 503 522 542 506 487 529 536 585 527 486 519 504 521 534 528 552 529 527 498 491 487 525 529 509 518 519 580 552 568 518 519 565 532 521 516 502 564 530 488 544 539 490 491 515 498 487 531 519 517 477 528 503 507 499 542 496 529 498 521 544 539 520 503 508 488 472 502 498 476 524 512 551 524 539 525 511 499 553 480 483 506 521 529 465 513 541 502 546 493 497 518 457 514 508 520 503 472 491 504 524 491 491 485 500 519 499 528 508 457 512 476 509 479 536 515 530 509 528 500 521 451 516 488 560 495 504 496 501 490 491 469 515 507 520 493 528 515 493 519 474 448 510 483 478 478 473 502 527 498 471 445 480 509 502 489 488 479 515 481 466 486 506 474 519 522 528 506 507 475 465 484 489 527 495 455 471 506 465 513 482 469 491 452 503 478 455 460 471 494 463 536 465 489 487 484 486 534 490 502 487 496 494 493 465 472 482 532 479 474 481 476 493 441 457 524 499 465 518 496 463 496 463 484 518 444 494 481 484 454 508 477 505 524 484 539 498 442 516 453 490 485 481 456 460 505 488 453 451 513 492 483 479 495 494 476 489 489 493 471 486 493 465 454 511 477 443 480 482 487 493 481 487 496 489 475 441 479 511 480 464 472 490 446 457 405 485 485 436 469 501 484 470 424 469 441 449 468 492 486 453 482 438 460 470 449 457 438 464 497 482 471 468 471 458 424 458 466 461 446 473 489 476 491 449 452 478 482 431 474 503 457 460 448 425 458 420 445 467 443 489 463 431 456 461 408 422 434 466 434 449 482 448 440 427 461 439 467 444 481 461 431 489 459 459 459 472 435 440 414 470 461 442 461 435 462 477 442 444 459 464 438 452 478 442 438 445 466 426 446 418 446 439 436 435 431 458 456 481 445 416 420 457 416 471 470 425 424 406 416 472 429 430 459 428 449 411 447 446 490 453 425 470 422 437 446 430 439 418 438 457 462 430 449 435 425 413 471 420 433 441 440 447 419 460 462 440 440 444 445 446 419 441 441 424 435 455 415 461 444 440 434 429 445 415 430 442 458 437 428 421 442 409 450 412 413 444 431 430 436 427 455 402 414 402 431 405 417 411 425 373 391 395 423 434 391 406 442 446 389 375 434 411 384 442 449 408 438 400 402 426 453 446 410 436 449 425 430 403 423 405 404 433 414 413 418 432 401 401 408 417 398 414 368 435 405 414 404 463 408 407 439 399 386 364 439 379 393 386 377 402 395 407 388 398 430 388 428 378 399 423 378 438 395 396 381 382 398 396 375 425 350 387 413 386 424 390 398 374 395 421 407 386 438 388 394 433 406 427 390 389 415 408 380 432 406 394 387 424 419 447 396 431 372 390 405 434 439 412 385 423 383 404 433 410 409 398 402 377 387 371 389 413 400 371 376 414 375 396 376 413 397 389 395 413 378 369 392 401 391 402 410 351 352 422 404 382 401 389 390 415 401 381 376 411 374 391 396 414 399 405 367 400 401 394 378 401 428 395 349 399 371 390 381 380 383 396 405 432 391 363 388 424 400 373 406 350 382 381 365 390 419 387 376 407 378 365 413 363 381 390 387 409 364 398 364 395 360 356 366 355 390 374 385 371 400 390 377 364 387 362 379 378 346 374 347 382 409 385 346 380 375 326 336 354 377 337 355 373 372 353 377 391 398 366 369 392 399 366 388 365 387 382 399 353 377 355 359 417 415 370 348 344 344 372 379 355 349 393 379 346 363 394 402 372 384 383 362 358 374 372 366 373 387 363 395 323 358 334 356 346 332 380 384 376 373 337 376 385 379 360 383 342 358 376 367 324 382 377 356 345 360 364 384 395 350 358 351 359 365 386 377 358 342 330 357 340 371 356 376 370 381 364 385 374 336 370 341 328 371 375 354 359 375 367 351 348 378 367 368 331 361 328 341 355 364 373 326 339 326 352 375 368 342 353 354 318 359 351 357 347 336 321 325 343 359 358 342 336 350 335 350 350 333 344 321 343 362 336 337 327 364 363 346 334 318 324 367 363 373 369 349 318 380 298 359 341 368 326 345 354 347 315 365 328 398 321 356 354 326 322 327 335 352 311 331 359 340 340 330 327 333 349 322 347 342 349 315 313 338 287 332 304 341 325 340 358 357 307 303 341 351 342 298 317 321 305 364 339 333 357 307 295 323 335 337 298 330 308 324 312 334 310 315 345 331 374 362 352 296 342 384 351 334 348 318 334 336 333 331 356 322 308 309 308 320 327 320 292 319 357 343 328 339 323 324 343 329 328 296 367 298 325 390 332 322 301 308 345 312 307 337 330 352 318 334 346 311 344 336 345 351 324 318 326 337 324 330 320 343 318 339 326 326 331 321 346 331 343 320 323 314 342 306 329 294 292 311 331 327 306 296 311 334 341 322 301 346 316 304 321 333 333 322 302 332 308 305 324 340 305 341 330 316 301 316 304 335 310 320 310 310 318 308 355 321 314 334 333 326 301 322 306 301 326 279 287 270 345 316 329 343 311 335 309 308 317 341 329 306 328 313 300 287 343 336 293 315 301 306 290 338 310 310 305 314 324 278 332 293 336 290 303 325 313 338 302 291 313 299 338 320 297 319 323 315 305 322 296 334 296 304 325 302 331 314 331 344 327 339 330 307 311 340 327 342 322 321 326 303 274 280 297 323 310 309 337 301 287 315 312 321 310 324 315 307 323 318 310 326 310 314 328 318 319 310 302 334 296 307 306 302 293 275 319 291 305 279 302 306 316 325 300 292 314 288 281 320 322 315 305 307 305 338 319 360 308 316 311 322 311 308 286 311 323 329 300 290 307 327 312 303 325 288 291 304 339 323 325 303 308 319 278 289 283 314 268 315 316 302 315 290 295 321 301 312 347 315 314 290 286 292 267 335 295 293 294 300 303 307 291 267 294 308 306 305 294 266 299 298 258 314 297 288 296 302 298 270 307 309 292 324 326 292 296 278 299 295 259 306 307 296 311 301 293 297 315 309 296 313 294 295 308 319 278 300 295 288 292 274 300 313 308 281 288 268 281 281 311 298 264 291 296 290 271 264 295 285 284 321 289 309 316 320 314 314 290 327 306 320 299 303 306 316 311 291 279 321 257 298 288 309 301 302 324 299 298 324 281 278 337 291 285 275 311 330 309 292 264 309 314 290 308 287 307 301 296 327 296 312 293 299 297 355 294 300 285 288 279 286 307 260 300 339 277 290 310 286 304 311 319 259 302 301 294 271 300 295 299 325 307 304 306 330 271 274 297 316 270 284 307 305 331 286 310 324 285 314 279 301 314 308 324 287 318 294 285 286 326 299 297 296 295 319 293 314 273 279 300 315 298 265 298 267 300 289 279 287 304 321 290 283 272 270 290 301 287 297 307 261 310 279 277 281 333 313 301 310 303 258 289 288 299 274 303 286 309 321 309 269 280 328 288 297 321 308 308 295 309 293 297 312 289 313 299 316 279 292 306 289 287 270 298 297 290 310 330 313 284 266 294 273 299 306 331 306 267 302 297 337 318 288 301 280 281 316 338 283 318 308 308 301 272 315 285 293 303 270 317 284 305 332 291 282 323 313 318 309 310 298 335 324 314 292 304 322 298 304 266 297 331 315 326 312 305 275 329 300 335 292 304 330 300 309 305 323 290 289 296 286 302 306 306 325 316 293 305 322 285 334 290 340 276 279 302 305 294 294 344 283 290 322 284 306 308 310 302 307 282 287 342 299 297 311 310 305 309 319 299 307 303 286 304 300 285 295 326 282 300 288 324 323 299 293 287 289 294 310 280 298 306 312 305 299 290 298 333 325 299 310 267 319 315 310 312 312 302 328 286 304 265 306 293 294 293 279 326 297 314 335 315 334 317 336 333 320 333 321 316 291 316 322 295 305 310 321 299 327 312 335 330 289 296 326 336 314 257 277 312 305 320 299 291 313 292 284 279 296 307 330 293 291 339 337 320 306 335 313 327 326 320 313 295 320 314 294 331 349 292 299 341 294 287 316 323 326 302 289 312 328 303 299 320 303 328 343 325 329 314 333 284 321 284 314 294 325 309 308 342 319 335 296 328 315 327 351 289 336 315 314 342 295 315 319 289 334 311 328 310 310 303 318 289 311 291 330 344 304 325 300 329 330 329 298 332 333 331 317 314 324 303 311 330 324 298 345 354 325 310 315 314 303 305 316 322 317 349 322 340 320 327 323 338 313 304 327 321 350 303 327 318 322 345 328 339 313 343 325 306 344 302 317 334 295 305 327 323 353 306 326 336 304 333 305 355 325 335 343 314 344 333 360 289 331 308 340 302 307 340 327 350 291 323 337 315 316 330 354 341 330 316 351 336 316 363 334 313 316 322 319 292 306 278 315 373 351 306 348 307 324 324 350 335 314 319 364 314 346 318 304 336 315 308 314 352 313 332 341 335 335 342 347 335 350 357 328 333 330 329 305 312 320 355 353 309 298 302 334 338 288 329 294 306 333 333 337 346 332 327 336 309 387 354 314 350 328 369 341 316 381 343 310 366 339 310 342 314 320 342 333 330 345 369 302 294 361 358 356 338 342 349 328 341 329 353 309 333 358 314 325 320 337 350 321 357 346 341 346 326 316 358 326 340 330 342 325 357 319 326 314 368 345 343 353 331 382 321 351 346 339 360 334 341 341 332 313 328 320 337 349 291 350 329 315 319 338 346 347 342 315 335 348 345 334 334 365 350 346 349 331 354 337 331 341 349 341 354 314 325 344 333 310 305 331 369 348 333 348 339 327 312 349 340 341 329 335 327 328 300 323 345 358 353 362 352 326 350 323 324 328 374 343 336 312 324 335 335 353 333 329 346 341 318 325 303 308 332 340 327 346 352 343 350 365 384 364 357 351 330 312 350 302 326 344 325 346 309 349 338 321 341 355 382 362 367 349 382 343 344 322 312 328 311 293 344 318 337 319 305 308 338 292 344 335 328 325 333 358 332 324 335 324 354 372 338 347 353 340 327 343 346 328 364 360 359 349 366 362 334 343 327 399 334 312 315 354 308 363 342 364 348 321 343 361 334 313 306 338 329 332 359 321 347 307 324 382 354 344 334 321 338 328 338 315 333 333 374 347 359 328 347 331 350 340 344 335 327 329 329 333 307 316 311 343 358 333 303 363 362 320 352 326 345 342 324 314 321 303 323 351 306 342 339 327 332 367 320 312 313 324 342 322 351 350 307 343 379 318 313 334 306 359 347 337 324 334 339 338 316 339 375 323 344 326 302 342 330 353 357 343 354 329 360 325 367 315 351 341 369 364 321 337 330 336 352 348 326 317 361 332 308 299 339 303 320 313 329 339 361 342 331 353 345 308 312 362 337 332 314 306 370 344 327 343 340 361 325 349 347 318 350 356 349 322 339 338 334 328 330 348 341 333 319 346 367 351 356 335 322 343 335 369 333 309 323 343 295 311 314 312 370 311 355 366 331 323 338 352 367 358 327 324 348 348 337 338 324 320 330 354 327 370 335 342 314 318 326 307 337 351 341 349 322 311 316 312 319 316 341 321 331 348 324 378 343 346 329 332 313 305 316 323 381 317 300 329 356 358 359 333 327 377 357 331 337 316 300 332 357 358 324 302 361 316 323 312 321 322 321 323 351 351 325 359 311 331 316 316 306 333 323 372 307 333 320 333 390 312 355 353 306 323 341 282 314 309 357 302 311 344 346 329 336 327 324 320 334 325 318 348 301 336 306 335 306 329 313 341 328 301 339 318 319 319 354 319 317 350 314 306 332 307 304 301 307 337 334 337 281 302 347 311 335 353 323 347 290 298 321 342 335 309 338 311 290 332 305 350 329 333 365 291 342 314 355 326 306 353 324 324 298 354 316 345 305 309 309 281 318 330 329 332 315 326 326 357 305 320 318 330 280 322 350 312 331 352 278 350 276 302 292 342 323 328 306 293 335 308 313 304 325 282 344 315 312 356 321 344 318 340 305 299 334 331 283 306 334 302 299 334 318 294 334 291 300 322 303 320 326 323 333 298 296 340 325 324 306 273 309 315 306 318 289 314 329 314 281 333 322 332 327 324 323 308 330 320 300 346 334 324 326 312 285 303 329 320 301 285 311 320 297 304 304 307 331 323 304 340 320 332 312 341 322 330 336 313 335 324 314 283 305 334 307 305 311 302 297 312 308 322 350 298 298 302 296 297 342 347 313 333 324 297 291 296 321 316 306 287 328 296 295 307 315 300 313 315 289 292 266 328 272 286 331 288 324 293 319 302 304 333 300 328 329 314 315 297 325 295 301 332 291 308 315 320 294 345 303 313 328 326 327 339 323 299 296 310 308 298 326 295 329 303 312 279 316 297 295 331 307 325 285 301 342 317 352 320 309 315 301 292 304 318 288 313 303 315 336 314 294 295 292 316 298 285 292 295 315 335 318 283 288 358 290 279 335 311 327 301 297 350 288 306 336 285 298 315 306 301 298 322 320 318 300 288 300 294 307 332 341 285 262 316 289 313 316 285 293 311 295 294 337 282 298 277 316 305 319 322 312 276 296 339 298 302 308 286 272 294 288 328 291 285 284 297 317 296 298 288 269 303 298 289 312 290 282 291 278 296 286 342 320 290 307 296 317 308 296 281 278 294 278 314 283 285 341 310 310 319 296 314 281 302 261 310 331 303 282 347 307 317 290 329 309 326 269 306 282 305 325 288 301 283 322 295 293 318 340 283 308 280 309 313 287 315 290 297 339 304 276 301 271 309 306 329 297 310 317 318 277 296 303 272 306 294 282 304 288 304 298 316 288 313 335 328 313 267 287 286 304 311 303 249 307 287 291 307 311 291 297 307 311 306 310 290 301 286 259 283 316 275 286 277 299 299 305 299 290 275 272 300 286 326 312 301 262 289 290 297 277 298 274 298 289 302 300 276 275 299 291 275 257 295 313 305 334 291 310 317 283 305 303 271 305 300 263 310 289 303 284 293 304 279 304 284 299 301 285 283 330 288 264 327 277 303 313 324 293 302 299 277 258 284 301 310 315 315 304 292 286 273 304 326 286 289 298 273 299 303 289 273 309 307 329 310 261 277 297 259 293 295 315 270 292 280 299 293 304 292 312 302 308 283 284 287 315 310 300 281 279 305 329 307 312 287 296 283 295 338 290 267 268 330 343 299 327 303 275 267 294 304 288 316 311 326 325 282 287 303 305 306 285 312 285 299 292 270 259 339 306 268 293 283 302 303 291 289 317 260 313 289 270 298 298 288 280 317 298 333 284 306 284 282 248 299 285 274 277 301 283 270 291 288 320 284 314 302 268 317 320 288 283 300 273 277 279 277 285 296 287 317 290 298 262 306 265 303 290 297 309 298 280 294 288 295 320 303 300 278 313 297 273 269 271 288 300 310 293 282 266 296 279 290 312 300 298 287 291 281 293 290 273 270 288 265 303 293 286 283 305 287 300 305 270 272 270 293 296 271 287 272 312 287 293 304 290 268 325 299 302 333 295 277 272 279 278 294 314 281 266 294 280 296 286 311 285 285 319 315 297 290 274 310 316 297 293 286 290 306 260 317 301 303 294 307 279 280 250 294 272 289 310 282 281 300 283 264 302 303 298 282 299 285 308 295 301 296 305 301 277 284 273 276 300 272 273 274 281 288 310 301 290 326 300 297 284 310 301 304 259 282 269 327 277 313 322 278 283 281 291 298 268 286 309 297 298 307 305 314 266 305 248 293 285 283 299 278 291 280 298 309 285 287 262 262 302 293 268 293 292 299 301 302 269 279 302 289 309 275 263 273 289 276 307 287 301 292 300 289 288 272 304 287 290 299 289 294 285 278 273 297 317 268 279 288 292 282 282 248 293 323 284 321 279 290 247 294 270 315 279 298 282 240 288 311 292 287 300 277 287 312 269 296 277 262 302 270 291 283 282 329 313 289 288 292 272 290 283 260 348 286 273 280 297 279 287 325 308 290 288 326 295 302 319 285 277 337 288 279 308 290 288 295 308 275 328 272 279 294 285 275 314 260 303 308 275 287 302 283 301 294 296 311 267 329 312 266 301 288 303 265 294 299 294 271 289 293 285 280 294 306 313 294 275 333 295 285 279 291 297 301 298 282 271 305 304 277 272 291 284 271 324 303 299 266 287 312 289 331 282 301 268 289 261 282 274 294 296 279 288 290 267 315 236 297 317 303 317 274 307 275 286 280 289 314 250 293 286 264 268 339 294 281 279 247 273 288 301 285 287 282 286 290 302 303 299 291 302 315 281 292 301 285 308 301 312 288 287 268 291 321 259 303 304 313 288 291 299 318 286 322 309 288 306 298 297 294 331 305 301 257 286 295 304 300 289 284 311 288 299 285 314 303 287 309 317 304 294 302 282 294 290 294 273 302 304 282 290 306 310 272 301 292 295 302 291 304 292 290 305 272 323 308 300 327 308 292 302 288 314 266 267 317 274 336 282 314 299 257 291 296 249 295 286 318 276 301 274 295 300 300 330 297 301 274 293 308 289 287 282 294 331 297 299 319 290 310 282 287 317 327 296 328 304 338 325 269 269 333 294 304 299 318 318 292 285 271 264 280 286 319 291 303 311 341 314 302 297 323 309 320 297 336 287 276 293 284 309 312 263 305 295 270 296 320 309 313 305 283 332 276 311 302 296 334 303 287 288 288 299 294 309 269 302 312 343 279 298 256 301 325 301 299 324 299 296 324 325 291 307 299 284 284 286 347 291 314 279 301 318 308 298 269 287 298 294 292 291 300 317 299 303 296 299 291 271 303 315 282 303 299 285 318 303 283 302 284 307 288 295 335 273 286 313 258 319 313 281 277 294 303 309 284 285 301 313 328 289 299 289 284 289 310 292 318 290 273 279 306 286 300 281 325 306 292 283 309 289 283 291 292 316 296 299 301 306 301 313 293 324 302 280 304 296 297 340 286 312 311 288 322 285 294 306 326 304 293 304 287 277 291 285 288 325 274 297 299 322 315 303 315 297 278 302 293 287 276 296 275 293 278 296 317 306 241 318 311 293 324 340 301 298 243 285 277 311 280 314 308 270 299 288 324 287 320 278 318 294 280 289 288 283 287 296 320 261 308 325 316 268 300 288 278 286 283 282 304 343 294 301 315 304 294 280 306 310 290 295 288 291 299 313 266 315 322 286 320 283 287 278 283 305 284 300 270 304 299 281 303 268 298 297 308 283 296 277 281 297 281 288 297 289 303 284 266 316 296 285 290 292 301 308 318 301 263 303 314 308 296 310 274 285 333 275 290 273 290 279 280 276 301 310 309 266 305 304 273 285 277 306 287 297 281 312 298 288 266 300 281 275 298 268 335 296 305 280 275 290 281 303 264 298 297 300 305 302 288 265 261 281 300 284 278 285 309 315 270 302 259 269 288 284 303 268 307 297 234 288 271 274 287 301 302 296 324 282 292 280 293 274 293 257 267 270 291 280 300 247 317 300 239 291 284 283 266 275 268 305 289 286 289 274 277 303 326 274 280 314 283 261 281 275 286 281 292 286 276 302 316 291 302 294 309 288 286 322 309 296 336 306 312 269 277 274 270 287 287 270 299 288 292 280 275 277 281 282 262 273 271 293 302 315 310 295 315 298 289 294 282 282 282 322 345 304 270 304 258 283 315 277 279 291 287 295 294 312 297 257 318 243 299 284 289 292 306 311 305 301 308 305 314 315 281 301 278 319 293 285 298 318 320 311 303 303 296 310 324 293 278 293 306 318 295 313 320 293 275 269 288 327 273 320 322 324 284 287 295 288 297 292 292 312 309 310 325 303 259 282 316 293 321 272 248 260 283 270 294 284 286 287 293 297 304 307 323 289 302 283 304 304 304 325 279 284 314 298 295 331 282 314 299 285 304 302 322 299 298 326 302 308 312 310 306 281 294 285 329 304 286 322 301 317 303 289 302 327 320 285 312 314 303 286 260 296 318 262 296 334 296 304 336 287 279 322 306 304 301 305 330 306 298 287 334 300 293 295 311 294 316 305 295 335 292 338 316 299 301 322 321 286 326 314 305 313 295 292 323 319 271 292 313 336 297 290 282 329 322 304 286 308 293 296 296 302 306 298 320 338 301 314 317 301 328 295 323 308 300 285 277 331 312 325 320 313 308 281 281 303 298 315 314 347 299 296 300 298 312 317 334 339 351 329 301 320 318 305 295 294 296 328 301 330 309 325 320 326 317 298 310 315 284 320 324 300 347 309 302 322 312 309 344 306 328 319 319 281 322 275 327 362 344 300 301 344 321 294 332 340 332 308 287 339 317 335 343 327 330 316 335 325 313 299 312 284 284 329 351 330 340 361 311 323 347 327 318 313 316 325 309 296 302 312 364 298 352 330 311 288 322 312 308 299 311 338 322 321 314 333 331 349 356 340 328 290 327 350 290 303 328 360 324 298 336 309 313 309 328 326 363 312 347 343 326 324 322 319 317 334 353 340 332 304 346 316 358 331 355 315 328 315 308 333 390 349 337 363 313 327 317 365 352 319 345 319 318 348 349 327 327 315 349 344 323 349 326 301 319 352 336 335 324 342 344 310 318 352 301 336 314 324 325 339 300 341 316 317 337 295 325 344 346 309 356 314 374 309 328 327 335 310 336 344 283 326 319 330 318 314 350 326 331 336 356 332 357 328 318 319 338 368 335 315 308 304 349 315 281 335 341 295 330 331 340 342 319 328 330 325 328 317 330 332 298 308 313 303 325 340 335 315 312 296 314 285 290 314 289 288 340 315 288 319 307 292 315 270 307 322 280 300 290 289 297 278 287 301 288 308 280 267 283 284 303 267 286 305 279 305 282 276 281 321 306 315 257 245 301 292 290 277 317 290 303 299 296 277 305 338 308 283 306 280 294 293 284 267 284 260 277 299 293 281 300 302 246 298 293 260 281 246 305 288 274 264 276 269 284 290 275 246 273 272 283 235 277 267 269 295 284 274 275 276 223 284 259 235 231 256 267 285 273 263 273 297 275 264 258 275 257 244 287 243 262 271 268 264 225 246 237 260 258 269 256 267 238 275 278 241 238 249 263 250 246 273 269 256 260 269 244 257 250 299 257 295 223 275 241 233 271 264 260 293 286 266 282 268 266 279 276 294 241 266 271 243 239 259 263 285 268 267 240 251 274 264 261 281 273 269 256 284 267 282 271 273 274 244 278 272 292 298 262 263 232 258 249 256 262 267 245 257 275 271 244 241 282 268 264 236 271 288 314 247 249 267 290 271 258 260 295 263 289 305 287 285 278 278 295 278 244 271 261 273 276 292 273 273 277 287 278 262 267 245 288 268 287 280 292 263 266 267 280 277 262 262 244 264 228 293 246 269 272 269 259 266 241 261 280 266 270 274 266 265 257 226 284 229 237 247 249 294 239 270 283 270 240 257 269 269 267 281 263 241 235 257 273 271 261 280 265 234 263 234 269 218 228 229 246 287 269 260 248 258 272 237 271 269 237 235 247 263 235 234 257 259 244 229 245 273 250 234 234 242 240 257 212 222 234 250 241 258 241 244 226 221 218 220 241 212 238 213 275 221 209 247 240 234 250 245 265 237 257 237 212 197 227 234 231 246 240 224 221 260 241 221 229 212 234 233 234 221 213 220 240 211 229 222 244 221 246 212 240 229 221 237 243 226 235 234 224 237 218 238 212 236 234 216 228 208 237 226 219 220 210 228 217 233 220 207 204 236 236 222 266 227 211 228 212 233 204 242 226 210 230 216 216 209 234 243 234 193 238 213 235 202 258 227 217 223 244 220 225 216 242 204 224 215 219 184 223 220 200 192 209 232 215 265 188 184 216 201 239 204 205 203 184 207 195 187 218 188 208 236 232 215 216 212 215 234 216 248 196 192 224 217 222 203 230 228 199 203 207 229 203 213 202 216 212 223 223 214 213 241 204 214 224 222 221 214 173 223 223 239 218 185 200 239 226 229 220 183 194 227 200 215 211 221 217 203 211 224 207 212 189 218 228 220 205 203 209 236 200 188 199 217 199 242 217 210 240 207 219 212 204 202 197 215 208 231 188 218 200 215 227 193 205 180 215 181 217 218 200 211 184 230 199 205 214 211 187 226 184 189 207 198 164 199 198 223 215 205 191 213 210 209 214 223 214 201 222 203 224 206 179 203 217 191 207 197 215 207 241 225 193 214 202 204 201 240 208 195 230 213 191 216 214 216 194 202 182 219 220 205 196 217 226 205 182 216 188 196 214 206 217 177 184 197 215 203 229 201 210 217 195 202 207 214 205 224 226 181 213 194 198 210 227 184 217 208 170 204 204 221 221 195 201 188 198 225 211 203 202 216 194 212 202 220 207 234 217 225 213 234 218 201 202 209 176 224 214 220 225 220 195 248 202 221 235 228 204 198 235 196 182 210 204 216 225 234 208 195 223 207 207 213 212 203 201 213 188 195 182 225 204 184 222 212 222 231 213 209 220 213 200 212 220 200 232 230 198 201 190 201 231 216 217 185 193 199 221 206 218 194 214 190 207 212 185 244 216 210 219 223 202 199 220 224 207 232 210 201 237 232 198 220 204 243 214 209 226 246 201 226 209 209 212 196 217 225 212 222 215 217 242 204 200 219 220 222 204 199 196 210 194 201 189 221 213 221 202 218 208 228 208 231 193 227 220 208 222 217 186 200 212 198 229 201 236 202 214 228 216 202 216 214 193 234 212 236 205 210 204 198 225 196 192 223 199 229 182 207 213 214 217 262 232 204 214 210 201 232 235 216 230 211 228 228 198 226 203 239 227 212 221 225 266 203 258 205 233 211 224 239 224 220 186 232 242 226 235 224 232 219 236 219 235 217 214 222 225 228 211 239 217 256 230 227 223 249 231 203 221 226 212 213 245 215 234 227 232 222 206 246 237 216 235 251 216 259 227 220 232 233 230 230 222 242 231 231 239 225 215 249 248 235 234 256 263 262 245 276 235 290 270 275 294 231 277 257 293 281 289 264 264 274 263 283 271 300 293 275 289 276 284 276 276 286 283 306 296 301 274 268 259 292 317 273 284 260 269 308 250 294 234 287 265 246 259 272 248 269 280 270 271 256 247 273 274 276 268 283 282 278 250 271 245 266 281 293 274 296 297 276 261 282 264 245 282 286 228 270 271 242 233 276 249 273 308 267 260 281 267 261 259 326 276 257 300 288 275 274 271 299 279 282 274 285 296 290 289 295 270 277 273 272 312 291 303 301 311 282 275 327 290 272 298 284 292 317 303 323 318 324 295 279 306 313 298 328 311 311 299 268 295 297 325 303 299 289 280 318 320 331 324 303 347 346 333 316 371 329 318 320 290 317 364 311 322 327 312 300 338 346 343 326 316 332 333 336 351 301 304 314 330 334 335 339 332 323 329 296 363 317 334 330 333 337 342 336 306 339 307 330 324 335 338 361 371 348 339 337 325 380 339 336 367 359 355 346 330 357 337 321 347 321 360 311 299 336 312 303 382 367 346 383 377 347 355 341 332 356 337 341 356 353 344 348 325 352 329 333 357 329 331 316 321 336 322 320 343 339 328 300 317 319 354 338 329 320 314 308 301 311 346 291 327 321 304 381 358 281 333 307 303 301 320 314 321 345 310 340 303 304 293 319 315 312 336 318 334 267 288 306 282 304 312 304 309 291 316 322 283 283 258 273 273 302 295 269 288 270 290 297 283 278 297 303 247 297 289 293 273 262 283 287 238 303 292 288 256 261 276 300 258 276 291 273 281 282 263 277 259 317 261 278 239 269 234 283 263 270 242 247 289 279 261 258 250 273 247 261 275 225 250 296 257 249 246 216 234 245 235 239 245 224 244 249 215 230 216 235 266 257 246 228 228 240 236 218 240 208 220 232 276 222 230 229 222 217 262 259 220 231 225 210 227 212 208 224 246 217 227 219 221 236 203 243 206 227 199 219 220 205 247 250 225 173 213 198 206 190 202 217 192 239 208 188 204 230 208 220 236 214 234 193 195 237 213 217 199 210 202 199 204 229 219 210 195 196 187 206 203 182 204 215 195 209 189 194 192 202 198 180 189 207 214 221 183 234 210 173 192 181 187 183 181 202 176 210 181 211 183 192 203 196 251 189 207 199 200 213 181 202 197 182 175 178 182 199 189 188 222 198 175 211 173 177 189 190 202 212 217 191 163 199 185 180 175 192 194 202 182 201 205 195 198 177 189 173 175 203 201 187 199 178 203 193 196 186 170 153 179 178 204 202 194 206 190 197 183 181 192 196 182 179 201 203 181 202 193 187 178 197 179 190 197 168 195 184 186 179 172 194 180 178 187 203 179 202 164 182 159 176 165 171 202 196 173 160 192 201 181 178 165 181 173 185 169 160 159 181 180 184 190 206 189 161 187 164 178 185 183 175 207 181 169 202 163 177 170 175 181 160 166 169 204 186 145 184 179 197 161 175 183 196 181 174 160 176 178 194 165 179 165 161 180 188 168 166 160 181 168 216 153 155 152 162 177 166 192 180 148 158 179 177 187 165 184 156 189 185 182 183 188 172 157 159 155 164 151 158 184 150 186 183 184 185 158 174 177 201 180 171 175 160 169 143 178 184 167 169 178 157 178 174 175 163 143 188 176 144 188 144 162 177 170 175 152 175 157 174 153 157 144 162 153 169 177 151 171 164 173 201 182 154 165 152 179 158 179 154 169 164 155 182 188 172 163 162 157 163 175 144 144 186 178 186 160 162 159 168 135 145 163 173 188 162 185 159 138 152 144 154 165 160 176 171 168 162 170 166 196 161 179 166 164 169 177 156 168 172 164 163 183 170 157 178 149 157 159 138 184 159 179 181 154 148 157 165 144 173 196 169 175 172 172 136 170 162 152 184 166 177 166 167 147 169 162 153 153 185 176 151 138 163 161 124 147 171 190 168 150 155 165 156 164 163 179 173 160 134 182 163 180 155 145 160 147 186 142 163 170 152 193 166 142 178 181 167 174 173 172 138 158 160 159 157 180 155 158 151 184 165 163 169 161 167 159 149 178 152 186 171 164 155 158 154 175 146 159 168 160 176 174 147 157 176 137 175 151 150 161 182 157 160 194 158 183 164 138 160 173 147 172 177 143 157 143 132 182 156 142 194 158 167 166 161 150 176 150 145 152 170 176 155 156 144 159 154 164 153 176 147 157 151 148 121 148 161 177 157 157 158 170 172 168 175 153 146 163 178 152 178 175 182 162 162 140 153 156 158 140 143 141 133 173 154 183 159 181 145 194 162 152 188 169 136 155 174 161 180 157 155 160 158 154 155 156 173 157 169 147 158 169 168 148 144 182 171 137 172 153 150 166 158 180 157 165 149 151 165 156 134 144 160 138 160 175 163 160 145 147 159 138 165 139 181 158 151 160 140 178 147 146 170 168 163 170 136 153 143 133 157 167 162 155 166 160 138 178 163 147 148 161 176 153 177 164 158 153 148 136 158 147 143 161 171 149 155 155 159 162 170 170 147 171 160 161 176 158 174 158 174 174 141 160 142 189 158 156 138 152 142 158 173 137 160 157 146 149 169 163 151 136 147 154 149 163 187 145 139 167 146 170 150 158 170 158 155 163 148 150 153 155 154 146 179 131 151 141 147 147 179 165 155 148 140 149 167 168 156 160 160 142 156 150 136 182 165 167 160 150 149 145 142 161 127 172 153 150 148 161 150 151 179 168 152 157 156 157 140 172 167 166 146 161 149 156 153 131 158 139 151 140 153 148 148 162 175 147 161 153 169 164 168 183 173 139 153 163 171 168 171 163 164 152 161 154 176 168 166 136 153 160 171 164 153 162 175 150 177 183 190 141 153 137 139 131 135 148 163 173 161 169 135 164 159 180 156 136 148 158 165 150 142 135 153 145 186 139 156 163 155 170 152 139 154 157 159 153 162 161 148 158 149 161 140 162 138 144 147 172 139 163 154 149 135 173 150 186 137 154 139 168 169 180 174 172 160 134 148 179 152 172 160 150 156 131 155 154 150 157 130 155 144 179 154 164 138 143 162 169 130 148 147 156 169 168 153 159 142 151 169 154 159 154 157 172 167 181 157 161 157 178 179 156 148 142 147 141 149 157 164 154 146 146 141 131 178 155 143 141 146 149 161 162 152 153 178 147 151 167 172 150 181 180 164 134 165 166 162 144 169 156 162 189 149 170 173 139 155 135 163 161 184 153 157 154 172 143 141 166 158 168 154 169 158 157 176 146 152 178 151 151 157 150 137 153 156 155 167 163 153 175 181 153 172 173 176 138 177 171 143 144 159 150 157 152 148 136 154 138 171 130 163 137 141 168 158 169 141 177 188 184 154 167 160 151 160 164 150 151 156 161 158 143 135 155 137 186 172 165 165 164 156 137 156 156 147 154 161 162 145 158 165 157 160 154 160 163 158 191 175 173 173 153 163 146 163 166 188 165 175 146 165 157 151 160 166 136 156 137 148 149 141 166 163 148 149 174 161 148 148 157 163 160 145 189 167 163 165 164 154 171 158 167 135 167 146 158 148 156 130 153 145 147 158 156 167 152 170 143 144 149 154 150 159 151 137 142 150 172 161 162 151 155 154 132 158 173 164 144 147 161 166 156 167 179 157 155 142 176 179 154 176 149 155 171 173 160 168 171 169 159 155 163 139 155 168 147 165 140 141 162 189 152 190 154 148 165 143 157 178 183 138 150 168 152 160 166 137 143 169 172 158 154 163 156 153 125 162 165 148 133 157 174 176 158 145 171 149 161 171 169 161 148 171 154 187 167 172 159 142 172 191 185 186 157 154 160 169 149 160 166 150 156 171 146 157 142 150 151 152 180 171 188 158 163 163 164 165 160 157 179 159 165 150 154 173 154 173 158 156 168 181 173 184 159 150 136 169 151 168 172 180 160 171 151 172 161 156 166 182 176 181 150 197 151 193 161 166 162 163 173 161 152 128 150 165 155 180 184 166 145 175 169 165 168 152 163 162 160 152 128 178 183 168 171 163 173 193 177 156 162 150 176 166 147 168 173 170 170 160 161 154 180 152 147 153 154 179 166 134 150 175 172 151 148 153 154 159 150 151 157 174 149 195 155 179 145 151 166 147 146 176 148 163 182 168 168 148 157 173 158 157 161 202 189 162 172 141 149 158 178 174 163 164 173 168 162 164 165 177 149 160 175 175 178 172 156 161 165 171 181 156 176 182 178 167 167 187 188 159 168 167 163 159 187 160 152 167 190 152 148 164 170 150 192 181 171 189 167 170 187 167 164 175 162 164 146 164 177 173 176 162 149 177 183 155 161 171 167 199 189 179 184 183 161 155 187 177 207 169 169 182 195 177 180 180 170 197 210 155 190 153 179 158 159 179 157 168 182 160 167 179 166 165 179 174 193 160 156 155 150 160 169 149 161 169 186 161 152 179 151 166 172 152 192 174 202 173 179 178 163 171 199 170 157 163 164 165 170 196 173 178 170 155 177 187 167 186 176 155 186 161 168 172 178 189 163 186 162 155 170 170 156 192 165 161 191 191 189 185 150 162 172 188 168 170 175 160 192 169 179 187 151 196 172 182 188 179 174 200 173 172 163 173 183 179 154 184 178 188 198 166 181 158 201 174 158 184 159 181 189 179 168 180 192 181 166 170 176 190 177 182 145 181 190 188 169 170 190 186 162 174 214 181 184 174 200 170 179 156 181 154 163 176 186 174 178 183 183 155 166 171 182 179 166 185 185 182 161 156 164 173 201 175 181 178 203 172 157 164 173 150 170 167 165 181 189 146 163 170 178 180 184 192 185 166 189 195 168 171 181 176 181 155 171 176 142 166 172 179 160 167 202 181 181 188 166 162 181 193 197 181 180 179 178 186 193 164 212 172 177 186 171 178 173 176 187 168 170 181 185 155 171 190 175 150 209 172 154 166 170 173 164 162 191 188 159 180 162 169 177 153 170 185 143 174 168 183 159 174 173 196 168 177 179 190 190 185 191 184 186 156 212 185 168 188 206 202 170 182 154 190 169 168 173 173 176 191 180 211 174 176 192 170 162 175 157 190 187 182 171 174 176 171 194 167 196 192 192 199 163 198 177 166 169 176 155 188 171 204 186 186 193 193 187 190 190 168 201 175 181 183 208 178 171 189 175 169 184 173 158 202 169 173 186 146 181 188 185 177 176 179 176 166 200 185 167 209 180 194 202 149 185 176 192 195 187 163 188 200 190 185 203 199 197 174 187 183 183 196 167 190 179 188 205 186 177 177 204 189 190 200 204 205 190 230 199 203 190 192 183 185 170 204 193 182 164 202 187 196 201 177 224 170 214 175 162 180 170 190 189 187 195 180 204 205 183 217 188 211 201 158 186 185 169 197 191 202 204 187 208 193 178 164 180 220 206 191 187 180 195 198 178 202 172 199 164 209 223 194 186 180 202 167 193 197 199 214 198 219 186 219 206 197 217 182 214 189 180 185 181 196 187 195 223 217 203 191 230 185 211 200 214 196 201 188 189 178 200 201 199 185 200 194 194 186 181 203 192 206 192 206 187 194 210 169 193 236 204 217 193 219 196 187 207 198 216 189 191 196 203 203 196 199 189 189 207 214 199 216 209 173 183 182 208 171 196 202 189 209 221 193 209 225 192 184 214 199 203 228 193 203 227 199 180 177 208 227 221 212 195 199 198 188 204 216 182 193 199 205 184 222 207 195 198 209 219 209 208 199 201 190 193 196 195 212 204 214 181 213 231 184 181 198 198 183 216 205 216 207 207 209 192 186 195 212 205 203 202 197 212 179 204 222 203 208 241 204 195 196 212 202 186 197 217 210 221 207 218 201 200 213 188 211 193 217 188 204 203 183 199 219 198 188 205 207 205 212 195 198 209 198 215 216 187 187 191 224 205 215 178 205 206 203 186 198 194 196 187 205 173 194 210 193 195 199 198 197 189 210 214 203 211 207 186 213 189 200 199 197 198 185 215 193 204 204 186 194 183 221 199 195 189 183 175 174 190 200 230 209 206 198 212 191 199 207 216 207 168 230 188 202 192 187 208 212 194 207 204 220 183 213 204 203 200 193 188 212 160 202 207 175 203 201 201 200 187 187 172 186 217 197 185 204 210 197 181 179 197 181 213 217 199 214 201 196 193 182 198 206 186 223 197 206 183 217 179 201 205 191 180 205 193 204 182 196 189 161 178 210 217 209 207 173 191 196 203 180 224 206 187 210 197 179 227 195 181 181 194 222 207 210 204 176 186 179 195 186 216 183 228 203 199 211 217 168 190 186 205 220 168 208 180 189 189 182 191 184 193 201 213 196 189 192 196 197 182 189 175 182 201 204 179 188 177 206 190 195 174 170 186 181 198 206 196 211 210 186 201 169 137 189 175 169 188 169 186 189 188 212 200 216 179 194 177 198 223 183 203 218 197 185 164 188 201 187 163 200 180 176 187 203 180 167 203 179 183 191 176 209 172 207 187 199 208 195 197 196 190 190 204 195 177 206 193 180 193 199 193 185 170 174 168 201 198 204 189 211 204 198 193 192 198 171 170 177 199 181 215 202 184 184 205 177 193 208 183 201 184 198 197 183 200 181 188 211 199 189 197 184 185 218 207 200 200 172 175 198 163 188 193 200 202 169 193 173 179 235 197 204 184 179 180 219 206 181 184 193 210 208 196 189 187 194 204 190 207 196 199 192 189 201 214 191 179 195 191 196 189 178 195 180 197 181 195 204 196 196 188 199 189 214 188 194 181 169 202 227 180 202 200 203 184 210 184 199 209 180 219 185 219 199 196 193 185 187 203 206 213 203 202 200 174 198 204 192 218 182 197 209 195 175 207 206 189 182 217 182 201 188 213 185 223 178 186 199 219 220 208 192 213 209 209 223 207 210 189 198 185 210 183 190 183 202 191 203 162 206 210 205 202 185 225 215 207 226 228 219 205 233 212 209 208 202 213 224 211 202 209 193 212 183 190 195 216 218 203 224 220 201 204 204 206 202 206 204 205 208 212 209 221 188 192 210 223 210 194 207 216 234 224 246 202 192 226 207 221 201 225 203 226 234 193 204 222 207 217 192 258 184 232 231 259 229 212 216 244 218 206 230 213 188 240 229 217 221 195 242 191 205 191 206 224 191 244 225 226 217 227 217 220 217 196 212 224 225 239 215 247 205 225 222 226 225 235 231 227 205 218 227 213 202 205 256 220 256 238 248 198 210 258 250 228 224 225 213 232 239 246 240 240 259 258 224 233 236 240 248 251 264 238 231 239 257 257 244 231 229 239 232 225 242 214 229 251 267 236 268 249 236 223 256 246 248 249 240 239 273 222 206 243 230 245 282 238 240 279 290 224 247 237 267 259 265 267 257 298 250 222 251 266 263 248 246 243 264 247 271 241 271 247 278 225 246 258 272 272 261 267 265 301 267 280 277 289 269 271 284 284 311 291 274 300 271 273 273 272 285 287 288 293 289 290 278 271 286 322 284 271 260 284 304 293 288 319 316 315 325 336 312 337 311 347 328 297 301 322 307 326 322 289 306 292 348 298 315 288 323 353 316 353 323 336 322 327 355 329 317 351 317 343 307 311 327 309 344 347 320 309 337 308 345 322 325 347 380 407 369 334 364 334 317 348 341 342 335 368 332 388 367 341 336 335 366 372 343 345 341 344 392 381 356 362 411 394 406 350 340 392 400 382 397 370 400 403 381 357 356 366 376 370 379 401 334 392 401 402 415 395 420 353 400 383 373 382 392 367 376 350 370 439 375 386 399 406 380 427 401 415 400 363 395 402 406 402 376 365 391 394 382 386 398 419 340 379 360 399 403 394 389 401 414 391 407 393 354 381 344 375 351 357 359 337 366 385 434 414 381 374 372 371 364 344 390 353 404 375 350 343 338 345 363 365 346 411 351 333 340 358 342 351 339 370 348 349 329 336 361 365 337 339 334 352 317 348 326 328 343 329 326 344 349 323 329 347 348 343 332 293 308 291 341 290 315 316 313 295 350 278 302 300 321 306 320 337 289 299 287 291 289 319 295 301 301 345 295 279 271 293 283 275 285 293 280 313 285 293 267 248 272 268 272 289 271 264 244 269 264 263 264 243 240 263 273 298 277 282 250 287 280 238 280 267 264 247 268 241 238 275 222 225 221 260 234 288 241 248 228 240 247 270 235 237 247 247 243 227 219 223 231 210 265 210 240 249 229 212 246 227 246 198 233 209 197 239 228 229 249 240 230 265 229 195 229 218 247 215 205 219 196 212 193 238 237 189 211 212 221 193 185 190 226 198 204 207 216 188 225 187 199 188 191 196 184 189 194 209 197 206 198 210 190 203 210 218 189 194 207 178 219 182 201 202 223 184 198 216 165 195 190 181 197 189 191 197 170 186 194 199 203 171 195 191 164 191 193 185 179 176 173 183 194 194 197 194 198 170 176 208 192 179 182 199 180 185 212 201 202 179 177 189 181 190 186 173 191 194 214 179 183 189 170 188 193 198 154 181 169 171 167 217 163 171 193 178 169 182 168 184 199 189 193 172 165 157 176 185 171 164 187 192 150 185 179 160 177 166 175 182 174 197 184 155 188 173 147 163 174 164 178 174 176 158 160 170 197 178 187 168 174 159 185 172 175 149 167 156 176 161 145 166 147 174 143 186 168 174 158 189 189 146 168 154 174 184 161 161 161 149 176 172 163 172 159 174 180 159 153 180 149 142 161 174 186 175 172 173 182 176 192 176 172 148 174 186 141 152 158 162 139 158 178 156 184 205 151 160 179 164 166 159 202 165 160 161 171 159 184 188 166 177 144 161 180 194 158 168 166 155 148 151 159 169 154 161 169 148 158 143 168 161 171 151 162 153 172 171 184 150 180 146 162 149 146 158 153 139 180 156 152 174 147 183 152 177 181 159 163 152 167 167 144 164 179 168 154 155 153 149 160 162 154 170 164 140 174 148 152 168 168 131 149 143 164 129 153 162 164 167 163 167 169 172 154 149 153 148 161 129 172 150 163 175 155 128 156 153 173 141 154 124 147 154 181 176 151 176 151 145 137 148 165 153 158 178 141 138 172 140 142 163 167 153 154 162 143 146 161 128 145 159 125 130 149 148 160 148 166 126 146 174 173 157 152 147 130 157 160 152 143 164 141 151 163 157 127 146 174 145 149 152 163 149 155 139 155 140 140 149 138 140 142 148 153 168 138 150 124 151 154 146 146 140 150 153 133 155 165 139 157 138 155 151 141 155 179 133 158 174 157 152 155 159 152 144 140 148 142 139 131 141 139 145 139 139 140 147 180 145 139 147 137 150 140 154 150 147 164 159 155 171 154 144 131 144 149 135 158 144 164 132 154 159 143 142 121 150 133 156 179 149 149 151 159 155 122 116 126 146 127 141 138 132 143 135 164 139 167 157 154 171 158 168 160 139 158 143 161 148 166 141 150 122 154 135 154 143 132 174 149 163 143 132 126 147 139 147 123 164 126 163 139 140 138 123 156 154 139 136 151 132 173 154 136 116 141 153 150 153 132 134 166 157 136 122 128 147 155 146 155 145 144 133 154 143 139 136 144 143 144 136 148 149 135 164 144 142 135 139 161 151 142 158 138 119 158 117 151 146 132 141 153 123 124 146 164 130 150 163 137 131 129 147 151 130 162 164 135 153 150 142 135 134 141 150 132 155 146 153 137 129 166 129 141 133 145 132 144 116 140 152 155 153 137 118 144 137 122 131 135 153 132 157 139 152 140 160 138 121 132 130 154 142 142 121 142 133 143 152 137 132 136 151 127 140 138 140 168 168 162 157 150 124 147 144 129 152 166 142 150 123 142 150 132 144 132 142 157 139 148 138 146 140 146 143 137 144 132 119 150 161 149 146 128 134 140 155 159 110 130 142 122 157 137 158 178 143 129 127 137 143 135 136 116 138 145 151 139 135 134 146 145 140 143 148 161 126 159 148 139 145 149 143 159 161 156 133 134 129 136 143 138 130 149 161 139 148 153 129 137 135 153 143 149 134 171 123 135 141 132 128 128 140 127 147 161 129 125 124 140 137 151 125 144 152 148 156 129 151 147 132 157 133 139 147 147 160 153 172 124 138 147 148 159 139 120 136 117 161 138 140 125 153 140 121 141 152 155 141 144 152 146 142 164 150 168 138 148 136 136 137 145 139 141 158 128 145 149 143 132 164 125 139 132 144 149 128 134 146 140 116 125 124 149 154 132 135 133 135 148 127 140 124 132 133 127 138 132 151 148 149 153 109 142 146 146 122 146 141 152 121 111 145 126 130 121 130 138 160 134 147 143 142 151 149 130 114 132 134 154 156 141 128 137 148 134 130 120 144 128 137 127 140 136 130 152 148 134 157 142 129 138 112 145 160 140 126 142 151 139 150 126 136 146 144 128 136 125 134 135 134 150 148 139 134 128 127 137 134 142 120 119 138 124 120 146 148 146 154 134 158 146 139 137 134 148 111 134 132 143 128 136 133 131 127 133 153 148 140 138 129 142 157 115 146 120 112 137 129 122 123 152 118 137 151 131 121 131 151 123 134 128 156 133 148 131 162 141 141 140 134 128 146 124 166 162 129 153 136 132 148 140 132 128 144 125 142 128 122 132 135 139 148 143 162 156 138 123 135 150 120 123 156 155 148 128 139 148 147 136 128 123 137 149 154 136 138 139 131 156 160 139 130 152 134 141 139 143 139 117 159 156 136 150 130 128 133 142 140 137 143 147 140 126 124 135 153 117 140 129 133 130 145 128 127 130 136 126 132 145 137 132 138 147 124 127 139 132 156 134 164 128 133 151 155 131 133 122 141 143 142 131 112 141 154 139 150 141 124 155 132 137 173 151 130 125 139 135 134 140 127 140 126 125 154 123 145 112 135 134</intensities>
			</dataPoints>
		</scan>
	</xrdMeasurement>
</xrdMeasurements>
