<?xml version="1.0" encoding="UTF-8"?>
<xrdMeasurements xmlns="http://www.xrdml.com/XRDMeasurement/1.7" xmlns:xsi="http://www.w3.org/2001/XMLSchema-instance" xsi:schemaLocation="http://www.xrdml.com/XRDMeasurement/1.7 http://www.xrdml.com/XRDMeasurement/1.7/XRDMeasurement.xsd" status="Completed">
	<comment>
		<entry>Configuration=Conf. Reflection-transmission spinner, Owner=User-1, Creation date=2/28/2018 8:43:02 AM</entry>
		<entry>Goniometer=Theta/Theta; Minimum step size 2Theta:0.0001; Minimum step size Omega:0.0001</entry>
		<entry>Sample stage=Reflection-transmission spinner; Minimum step size Phi:0.1</entry>
		<entry>Diffractometer system=EMPYREAN</entry>
		<entry>Measurement program=C:\PANalytical\Data Collector\Programs\sample-1.xrdmp, Identifier={BB6687EE-8248-4E06-B0C7-67735DEB5D7E}</entry>
		<entry>Batch program=C:\PANalytical\Data Collector\Programs\P3.xrdmp, Identifier={110013A4-273B-4C82-A4D1-871885B7687B}</entry>
	</comment>
	<sample type="To be analyzed">
		<id></id>
		<name></name>
		<preparedBy></preparedBy>
	</sample>
	<xrdMeasurement measurementType="Scan" status="Completed" sampleMode="Reflection">
		<comment>
			<entry>PHD Lower Level = 4.02 (keV), PHD Upper Level = 11.27 (keV)</entry>
		</comment>
		<usedWavelength intended="K-Alpha 1">
			<kAlpha1 unit="Angstrom">1.5405980</kAlpha1>
			<kAlpha2 unit="Angstrom">1.5444260</kAlpha2>
			<kBeta unit="Angstrom">1.3922500</kBeta>
			<ratioKAlpha2KAlpha1>0.5000</ratioKAlpha2KAlpha1>
		</usedWavelength>
		<incidentBeamPath>
			<radius unit="mm">240.00</radius>
			<xRayTube id="1010048" name="Empyrean Cu LFF HR (9430 033 7310x) DK427586">
				<tension unit="kV">40.0</tension>
				<current unit="mA">40.0</current>
				<anodeMaterial>Cu</anodeMaterial>
				<focus type="Line">
					<length unit="mm">12.0</length>
					<width unit="mm">0.4</width>
					<takeOffAngle unit="deg">4.4</takeOffAngle>
				</focus>
			</xRayTube>
			<xRayMirror id="27020009" name="Bragg-Brentano HD" hybrid="false">
				<crystal type="Graded" shape="Flat">BB/HD</crystal>
				<acceptanceAngle unit="deg">0.800</acceptanceAngle>
				<length unit="mm">55.3</length>
			</xRayMirror>
			<sollerSlit id="21010002" name="Soller slits 0.04 rad.">
				<opening unit="rad">0.0400</opening>
			</sollerSlit>
			<mask id="22030009" name="Fixed mask 10 mm">
				<width unit="mm">10.00</width>
			</mask>
			<antiScatterSlit id="22010003" name="Fixed slit 1°" xsi:type="fixedAntiScatterSlitType">
				<height unit="mm">1.52</height>
			</antiScatterSlit>
			<divergenceSlit id="22010005" name="Fixed slit 1/4°" xsi:type="fixedDivergenceSlitType">
				<distanceToSample unit="mm">140.00</distanceToSample>
				<height unit="mm">0.38</height>
			</divergenceSlit>
		</incidentBeamPath>
		<diffractedBeamPath>
			<radius unit="mm">240.00</radius>
			<antiScatterSlit id="22090010" name="AS slit 8.0 mm (PIXcel)" xsi:type="fixedAntiScatterSlitType">
				<height unit="mm">8.00</height>
			</antiScatterSlit>
			<sollerSlit id="21020003" name="Large Soller slits 0.04 rad.">
				<opening unit="rad">0.0400</opening>
			</sollerSlit>
			<detector id="7010019" name="PIXcel1D-Medipix3 detector" xsi:type="rtmsDetectorType">
				<phd unit="%">
					<lowerLevel>25.0</lowerLevel>
					<upperLevel>70.0</upperLevel>
				</phd>
				<mode>Scanning</mode>
				<activeLength unit="deg">3.3482</activeLength>
			</detector>
		</diffractedBeamPath>
		<scan appendNumber="0" mode="Continuous" scanAxis="Gonio" status="Completed">
			<header>
				<startTimeStamp>2025-12-28T15:56:10+08:00</startTimeStamp>
				<endTimeStamp>2025-12-28T16:07:39+08:00</endTimeStamp>
				<author>
					<name>User</name>
				</author>
				<source>
					<applicationSoftware version="5.5a">Data Collector</applicationSoftware>
					<instrumentControlSoftware version="7.9j 20171025">EMPYREAN</instrumentControlSoftware>
					<instrumentID>0000000011214615</instrumentID>
				</source>
			</header>
			<dataPoints>
				<positions axis="2Theta" unit="deg">
					<startPosition>6.00558257</startPosition>
					<endPosition>75.99655438</endPosition>
				</positions>
				<positions axis="Omega" unit="deg">
					<startPosition>3.00279129</startPosition>
					<endPosition>37.99827719</endPosition>
				</positions>
				<positions axis="Phi" unit="deg">
					<commonPosition>0.0</commonPosition>
				</positions>
				<commonCountingTime unit="seconds">13.770</commonCountingTime>
				<intensities unit="counts">649 701 624 591 643 611 650 621 615 664 612 633 683 620 626 667 618 638 634 602 612 611 617 607 601 635 612 633 561 654 593 644 621 620 574 643 601 596 615 650 640 594 617 613 563 619 636 628 626 618 612 588 610 583 631 626 577 582 574 573 599 556 630 625 607 627 613 625 560 640 538 566 632 585 616 594 581 597 585 628 626 582 584 608 571 615 629 572 598 612 569 565 568 588 554 607 556 562 591 628 550 610 556 556 591 582 588 583 573 589 626 595 596 622 564 564 562 607 617 558 623 611 573 587 588 521 587 586 557 567 579 626 577 540 604 609 628 578 565 594 592 594 609 554 564 577 569 632 557 551 585 566 537 622 547 575 602 555 564 587 608 589 600 583 606 592 571 594 545 560 561 607 553 554 622 584 572 609 588 593 530 608 563 557 608 612 567 606 537 577 552 546 570 534 562 535 591 565 582 549 518 522 580 580 547 558 582 616 553 590 579 577 512 536 565 564 533 575 537 622 561 541 567 591 564 537 555 543 586 588 537 577 572 525 533 563 562 521 556 558 501 610 519 555 580 573 542 541 593 524 575 502 522 554 532 546 579 543 549 535 525 562 554 587 522 516 567 541 552 564 559 556 540 564 546 527 572 533 514 553 573 555 549 543 532 535 520 571 554 563 563 536 572 570 513 554 552 566 553 573 539 550 495 589 553 575 525 560 533 534 516 532 531 531 587 517 520 545 599 494 559 528 538 571 502 517 553 553 527 494 495 541 510 536 555 512 518 550 560 501 520 529 522 562 561 551 529 556 490 557 530 520 547 522 550 542 571 527 577 528 502 536 516 554 534 538 561 520 540 519 539 552 507 508 526 534 567 564 539 540 525 499 548 550 576 488 529 510 524 518 541 511 536 546 514 523 575 553 532 532 570 509 474 493 552 494 559 508 508 526 519 493 520 478 509 499 540 557 560 525 538 508 534 547 481 512 474 514 501 536 516 505 492 517 477 573 500 477 540 529 542 510 507 474 473 488 543 474 516 506 468 522 532 504 517 526 485 564 498 515 531 503 496 518 449 474 479 479 545 511 504 529 504 513 453 491 574 512 486 523 520 525 502 502 477 482 515 530 509 535 493 475 487 514 547 518 527 499 518 475 520 490 501 470 495 498 508 502 500 453 500 459 463 549 514 490 480 498 487 511 501 497 512 508 475 475 484 521 491 469 498 506 517 490 492 489 484 503 443 500 500 491 517 517 485 501 469 481 504 488 511 495 492 498 443 510 467 543 493 516 496 500 522 472 495 478 495 471 506 492 444 474 499 473 511 445 480 455 528 495 466 485 529 485 475 445 474 499 488 461 495 486 472 471 493 483 506 472 478 484 513 492 484 490 450 465 448 466 485 534 456 483 480 479 466 481 439 481 479 446 478 472 481 472 459 443 470 453 424 458 498 489 489 476 467 466 465 482 469 465 496 441 450 499 461 495 390 476 410 467 484 464 464 444 466 453 472 468 442 464 475 455 464 450 452 457 459 478 486 483 469 474 436 486 513 466 432 468 474 472 424 437 478 466 451 435 478 443 449 435 421 424 426 442 455 477 427 458 430 462 442 487 492 473 421 426 428 464 426 482 411 500 403 495 452 461 430 480 399 445 484 456 435 434 424 466 422 443 432 464 479 459 456 423 421 459 431 446 448 426 442 472 463 451 471 439 413 448 444 440 423 450 463 414 430 464 459 457 459 461 441 405 424 424 458 457 445 441 438 437 444 448 425 395 453 439 419 405 457 461 463 403 394 423 404 407 438 420 419 419 391 459 437 418 413 434 442 406 446 392 451 458 467 438 424 417 424 432 436 413 456 394 426 403 418 431 441 403 424 417 418 390 448 427 390 399 441 411 407 417 426 428 389 388 430 412 388 469 466 402 426 423 431 447 400 397 464 437 429 419 426 443 414 458 401 439 414 448 437 421 423 427 423 440 420 426 381 448 409 382 432 433 426 424 420 391 431 409 426 396 406 410 434 424 385 371 394 413 393 372 402 416 415 443 407 399 388 432 416 411 431 409 401 420 434 411 420 430 414 401 413 394 408 434 411 381 379 407 406 410 375 381 413 384 396 422 352 381 412 412 400 422 388 394 408 396 377 415 366 394 407 379 368 392 416 362 392 387 367 386 378 406 358 367 409 389 376 424 378 380 417 362 382 381 384 375 410 356 403 434 342 395 404 397 425 407 446 398 411 334 366 402 375 398 376 385 389 373 431 401 361 390 428 352 404 366 373 392 357 401 364 387 393 385 345 418 394 379 332 385 380 421 375 353 391 387 385 372 406 398 372 396 374 362 379 407 390 383 373 391 348 345 391 359 370 375 399 359 378 361 364 397 388 399 354 386 366 388 388 401 373 370 364 388 353 378 355 371 348 398 364 342 376 364 368 380 377 362 382 388 378 367 354 363 381 371 373 349 391 344 375 353 380 375 359 318 351 365 363 359 367 361 361 384 382 407 360 370 373 349 361 371 376 360 359 346 361 390 347 358 341 362 350 383 397 388 362 349 369 350 361 368 353 352 337 381 393 327 358 345 367 361 347 362 360 354 382 374 337 354 315 349 348 347 352 362 401 340 347 344 357 385 361 376 354 364 397 355 329 357 350 361 367 351 337 324 349 337 362 360 349 327 355 324 328 375 368 356 364 340 361 350 316 372 348 360 345 355 386 374 328 335 350 315 359 320 374 372 344 370 354 347 315 363 344 351 327 357 346 332 366 343 377 303 317 360 346 349 357 381 332 370 327 353 393 371 329 309 326 326 356 360 366 358 337 341 359 320 365 334 337 333 356 313 362 365 292 320 340 351 356 356 340 342 352 327 319 327 333 358 362 368 327 336 319 330 336 355 334 313 350 348 350 356 317 338 354 362 357 352 330 332 352 353 350 330 351 367 303 323 340 330 335 363 386 339 345 333 380 349 317 357 327 340 359 372 330 377 353 350 348 374 342 348 332 333 353 321 320 345 329 346 298 332 339 365 311 314 356 311 318 303 321 339 327 346 319 337 300 318 322 293 320 335 309 330 318 335 321 356 331 330 352 339 351 394 314 329 322 309 318 312 319 343 322 314 347 350 325 318 330 348 331 353 327 320 330 321 328 351 399 299 356 331 317 309 336 339 325 329 326 333 283 299 316 334 300 322 340 333 322 329 331 342 312 317 360 299 332 301 324 348 370 358 347 343 329 330 339 366 340 321 353 338 320 350 313 340 345 315 322 347 343 318 307 295 365 316 313 326 349 343 332 338 338 328 308 334 325 342 345 323 342 350 316 324 325 323 327 322 338 301 304 345 323 315 342 286 323 319 292 323 310 323 320 314 330 324 310 344 359 317 340 358 343 333 375 318 320 348 312 301 346 306 313 310 347 324 317 311 339 331 338 301 336 299 322 313 323 306 333 313 305 368 306 322 307 349 339 357 358 352 312 371 331 331 336 310 336 294 332 307 329 297 301 314 309 333 303 311 363 331 334 320 359 313 323 325 307 309 399 310 319 317 314 363 304 315 332 316 328 329 307 307 349 343 352 323 324 315 342 301 331 316 261 312 319 322 317 328 346 284 319 319 371 323 348 298 331 313 321 321 339 362 333 329 308 331 323 325 323 307 324 318 324 342 336 311 340 342 325 346 306 350 343 315 325 322 341 320 325 331 301 300 327 355 317 338 319 319 339 349 304 339 336 308 307 361 330 324 287 315 356 327 309 328 332 288 338 346 321 305 334 323 322 309 313 329 359 385 313 316 333 343 345 306 301 304 334 313 332 323 318 387 328 303 332 298 321 296 303 333 295 303 351 324 327 308 331 341 334 318 309 336 323 325 370 323 328 307 358 326 359 308 313 315 332 348 338 332 357 351 343 331 325 316 332 343 344 319 332 348 359 371 310 307 301 340 383 331 333 319 337 326 307 332 318 339 336 326 305 329 338 348 337 325 357 341 316 338 331 354 320 328 332 318 302 334 345 311 330 280 333 312 360 332 324 315 281 343 353 325 296 289 345 299 317 331 353 318 339 367 341 338 331 326 312 314 314 304 331 340 324 307 345 338 313 368 319 321 314 342 337 295 319 305 307 315 336 331 348 374 344 341 346 339 358 327 361 343 302 328 337 320 377 322 331 334 318 339 341 334 359 315 327 331 313 318 335 354 334 342 330 332 339 355 343 307 348 314 339 356 318 354 336 354 343 335 333 320 323 326 312 346 329 300 335 325 362 334 342 332 330 316 347 354 324 336 319 305 371 327 314 333 326 327 313 311 363 343 328 330 332 339 314 360 350 333 341 328 338 328 331 343 328 340 329 351 352 362 330 350 352 321 394 329 362 331 305 356 324 333 332 351 366 322 320 343 355 361 337 369 339 340 326 340 298 319 311 324 339 357 361 350 351 354 340 302 341 340 367 334 306 342 342 370 319 358 306 363 393 355 349 330 340 334 352 326 363 338 342 321 344 342 349 368 358 348 353 363 321 363 356 361 353 349 329 352 341 377 335 348 341 341 343 307 339 332 324 368 344 367 327 360 344 341 346 345 320 371 346 340 335 356 356 321 350 341 356 355 342 353 324 346 339 353 329 343 339 349 351 344 358 352 345 365 352 338 358 349 363 357 320 353 341 360 328 363 360 356 368 359 348 343 346 379 356 368 352 350 346 392 324 355 340 349 329 352 362 339 373 370 341 350 337 375 394 361 326 345 352 320 357 359 311 353 352 368 351 362 316 315 376 332 338 371 354 324 351 328 372 349 312 376 386 404 377 349 336 352 369 342 347 354 376 367 347 384 339 352 351 355 327 360 352 389 373 332 329 367 381 340 383 361 362 346 357 380 358 367 390 367 367 356 354 359 329 356 347 364 370 339 360 365 350 375 383 350 355 365 334 351 356 348 349 349 350 361 372 332 403 377 346 344 346 349 361 347 371 343 345 336 363 359 370 372 341 336 362 341 350 348 354 377 381 377 358 372 304 362 358 348 338 364 346 362 404 376 374 375 335 385 361 369 363 369 365 325 344 337 350 360 351 353 384 378 348 337 364 386 361 385 370 330 416 359 349 361 370 330 367 349 372 366 360 403 382 379 342 344 362 314 383 370 392 366 349 363 386 365 333 395 325 363 362 365 399 375 392 369 372 341 361 351 340 382 344 393 375 325 366 368 365 386 374 348 385 370 359 390 361 373 386 386 357 353 365 359 339 386 385 356 365 349 343 333 362 341 374 369 348 343 372 372 361 351 338 392 366 329 351 375 349 348 339 356 355 358 354 369 379 365 359 371 350 340 345 370 369 328 367 341 360 309 383 388 387 376 376 376 369 389 316 342 399 362 354 375 372 313 339 368 345 377 343 324 334 381 358 405 369 367 371 338 371 367 388 370 335 356 415 379 355 356 346 356 380 361 324 373 349 361 358 391 380 399 354 318 397 362 378 371 341 379 356 390 357 345 363 339 358 367 343 349 352 384 375 373 348 364 337 359 366 382 367 373 406 370 314 346 372 368 372 344 355 365 341 356 339 386 359 366 360 348 377 366 376 344 372 337 321 377 304 375 380 367 342 379 341 320 399 374 330 368 351 366 375 368 360 355 345 369 347 380 303 381 361 370 350 359 370 361 368 380 390 365 395 398 371 390 372 341 355 351 327 346 346 354 329 394 369 389 353 381 299 361 382 336 369 344 355 359 359 367 383 378 352 369 384 377 331 365 362 337 367 377 350 363 389 383 387 350 354 329 331 358 351 353 338 373 336 379 387 378 365 351 362 382 359 374 377 353 382 333 396 360 340 363 320 362 361 341 345 333 361 367 347 329 377 340 336 388 324 374 365 346 374 368 321 399 340 362 372 361 378 368 381 331 357 380 342 381 366 321 352 391 359 335 341 347 351 336 370 352 346 313 345 377 367 390 365 384 377 366 366 359 372 355 378 374 367 374 344 347 392 376 361 363 359 349 362 378 351 373 362 377 365 363 360 373 348 327 381 372 348 337 377 368 343 327 411 360 343 361 356 366 351 338 349 371 371 376 330 367 328 381 362 365 388 365 340 354 346 353 387 385 343 373 370 346 348 320 358 374 348 345 400 337 371 380 357 355 343 359 347 351 355 374 367 374 368 388 355 311 352 350 354 345 376 354 343 362 372 337 342 350 338 354 356 333 392 365 354 344 365 374 361 360 346 369 328 381 367 350 358 383 324 309 342 378 317 396 374 314 366 347 381 364 375 364 378 389 366 365 340 362 389 330 307 351 350 345 356 353 374 340 340 363 326 353 364 369 319 345 339 322 331 343 374 374 364 376 369 348 333 350 359 374 392 358 312 371 301 319 360 334 339 375 349 305 320 372 353 324 353 372 352 368 360 380 324 353 338 365 354 325 311 338 342 349 413 355 358 324 350 333 379 343 353 362 352 350 313 341 350 335 370 340 326 341 336 330 338 361 346 340 352 336 344 344 338 345 343 332 346 312 361 359 316 341 354 353 313 361 343 370 350 333 321 348 345 354 349 340 348 324 370 349 373 364 357 335 351 328 336 373 331 352 332 348 348 357 357 351 374 342 371 344 351 337 340 349 343 381 318 330 364 321 332 340 373 353 359 345 329 362 331 322 317 376 354 319 348 329 343 328 361 352 355 340 378 365 323 360 367 330 378 342 373 360 355 350 370 368 333 359 355 374 342 350 352 350 325 328 373 366 334 359 360 349 327 374 397 341 337 339 351 333 339 371 356 353 371 330 339 360 326 344 334 343 298 358 359 354 373 378 340 381 295 341 366 347 376 338 347 318 338 357 340 334 326 371 339 343 365 334 328 329 307 336 370 356 374 338 339 371 332 354 326 326 333 338 354 347 368 364 369 320 338 321 350 351 337 337 363 387 327 368 371 329 359 371 337 340 337 345 343 311 337 370 336 349 357 324 336 328 333 333 349 329 350 328 345 339 299 330 343 327 351 341 325 352 355 327 347 341 331 350 318 329 351 357 347 366 378 342 348 322 321 336 368 327 334 320 351 342 336 332 344 342 366 341 308 330 333 343 307 332 389 328 315 360 339 352 298 329 364 311 313 326 321 319 343 340 318 344 326 330 306 313 355 351 337 336 324 340 354 345 374 325 339 320 369 346 309 340 309 347 331 327 335 338 325 329 343 336 335 307 358 303 374 340 360 316 341 338 379 359 336 321 349 336 366 339 339 348 330 341 342 350 320 350 364 331 356 337 331 351 302 330 351 327 348 354 353 360 347 333 321 321 336 348 325 340 313 353 348 306 353 368 323 354 322 337 343 356 298 322 313 364 338 313 357 348 323 356 309 360 338 346 319 326 351 328 308 352 333 335 292 333 343 328 335 361 327 344 312 302 351 326 331 305 333 348 340 366 339 335 323 305 324 332 352 340 333 352 327 336 317 351 331 362 306 334 314 333 366 329 322 314 318 319 307 312 344 342 342 345 349 304 352 325 328 334 340 356 318 330 332 313 362 349 333 302 303 334 300 336 334 312 297 367 305 334 324 290 344 325 361 352 355 327 320 338 348 298 329 352 327 301 317 346 355 327 316 338 331 315 313 316 348 317 326 332 335 355 336 355 315 358 332 298 350 293 315 330 319 316 345 329 338 332 361 338 328 317 319 327 331 325 322 318 335 347 314 328 316 352 330 335 363 314 313 267 355 321 338 328 329 309 306 329 317 309 330 348 345 339 343 338 321 331 329 320 309 305 320 338 301 343 310 337 351 332 354 332 362 299 340 315 343 321 336 331 345 353 364 333 325 335 298 342 307 339 323 338 349 297 311 346 341 298 353 355 358 346 306 350 297 337 276 340 313 339 324 341 328 340 384 330 355 304 332 331 319 332 335 313 314 335 278 345 341 321 336 310 307 321 297 326 310 349 341 336 320 318 316 343 326 321 312 336 315 339 296 325 308 314 335 320 326 327 334 296 332 310 337 340 349 323 326 307 336 305 325 346 361 311 337 333 312 293 306 319 310 321 312 330 359 325 331 322 342 337 321 329 334 326 284 303 362 328 327 342 334 342 355 323 314 301 323 292 344 310 307 330 339 316 325 293 334 320 315 289 342 348 332 314 338 356 342 333 336 323 355 327 320 308 319 346 321 353 312 311 285 328 326 305 329 292 328 337 299 307 319 282 294 319 322 344 339 326 366 337 329 325 345 355 299 317 305 308 299 308 299 326 313 304 344 288 317 276 352 345 317 333 302 304 325 324 330 299 314 312 317 315 319 340 298 349 339 324 344 296 302 323 337 310 372 322 327 313 331 298 317 323 319 342 322 318 330 329 297 295 337 297 288 323 341 311 322 333 304 316 310 332 291 308 356 355 296 297 332 311 322 304 320 287 343 326 300 330 340 314 316 323 282 330 300 303 316 319 310 312 287 344 299 335 321 331 339 296 312 289 316 325 342 329 327 333 318 310 348 337 348 326 295 304 320 278 323 323 336 293 341 323 325 328 315 309 319 309 304 342 299 310 321 339 327 331 329 309 319 329 318 316 343 313 343 328 322 338 298 330 293 309 325 310 341 344 331 348 326 287 315 327 332 327 330 308 304 323 351 317 305 347 305 316 297 324 320 308 341 324 310 274 317 339 320 307 333 307 318 307 298 326 315 316 316 362 323 296 303 326 299 348 323 310 313 325 294 353 310 329 351 339 349 358 334 356 301 321 314 313 323 325 358 328 323 349 329 345 323 324 342 358 346 292 314 330 291 336 307 329 332 304 335 325 334 287 359 313 360 330 338 315 355 343 350 308 386 321 335 312 322 315 315 319 312 311 326 356 365 321 341 326 295 335 316 319 332 323 332 309 320 306 307 344 334 315 289 311 346 337 331 310 353 366 298 320 334 301 327 352 314 310 337 366 334 291 353 339 346 339 336 366 304 300 319 328 308 349 326 321 309 307 309 307 320 302 311 309 333 286 329 334 318 350 337 337 322 343 336 338 330 337 324 338 336 295 338 324 316 316 323 323 331 331 291 304 311 308 324 276 338 327 296 314 337 284 320 310 341 307 346 346 302 333 309 298 320 314 331 287 351 290 323 313 324 355 317 353 306 333 317 316 331 317 310 328 318 313 328 333 319 329 270 339 284 320 324 321 307 318 327 360 308 320 327 333 329 348 341 348 314 305 321 345 276 309 329 288 348 306 316 294 319 342 335 342 311 330 299 336 315 290 332 317 308 324 357 315 300 321 333 340 337 326 302 323 319 329 349 315 319 324 343 345 349 332 360 335 308 331 328 318 351 294 327 313 319 309 314 336 284 306 331 309 293 321 309 319 338 338 305 318 331 336 310 376 299 322 304 288 281 297 314 298 297 300 336 272 305 348 331 333 318 279 295 298 310 316 297 322 304 340 312 327 332 326 321 330 300 299 345 313 297 306 322 320 314 292 306 285 307 332 326 317 344 326 334 293 324 301 307 308 334 283 308 315 292 291 321 297 310 294 300 316 315 344 296 289 286 262 297 302 271 269 315 309 315 290 310 301 300 306 306 297 362 297 293 303 331 340 292 314 292 296 327 312 328 306 317 295 328 320 332 335 314 316 289 290 321 332 314 294 303 302 300 295 331 318 272 294 313 321 302 260 303 310 306 346 326 312 294 318 331 324 326 314 283 316 300 293 329 336 298 313 306 296 308 311 331 309 310 325 271 315 319 317 320 291 284 315 342 318 297 309 299 312 281 318 285 323 266 292 326 286 311 314 308 285 341 291 304 309 310 290 292 296 251 328 324 329 297 332 300 310 334 309 316 313 281 291 305 311 274 326 313 281 302 299 289 326 282 312 270 290 297 286 271 301 316 316 304 302 313 284 326 303 315 304 281 293 336 301 308 311 305 304 288 317 304 304 317 338 290 309 330 326 304 280 285 324 266 293 329 286 323 318 321 327 302 300 322 308 262 288 312 308 296 277 329 305 306 334 322 290 295 306 274 292 330 321 332 305 345 302 307 324 330 300 301 309 303 313 292 321 323 320 284 327 329 298 325 316 334 327 292 287 314 298 327 316 310 301 302 314 293 306 336 321 296 314 308 348 312 286 322 320 276 301 289 303 316 321 335 320 314 290 320 352 308 315 312 331 320 307 316 335 330 313 321 302 325 318 307 330 316 289 351 302 281 292 307 307 308 311 335 301 318 315 341 318 327 313 306 305 360 315 303 326 317 316 315 326 305 337 326 330 318 317 302 326 296 289 342 330 326 336 313 310 321 330 337 324 298 335 316 330 306 302 310 299 314 330 330 292 311 315 314 305 333 321 312 321 314 291 305 314 324 315 312 310 326 292 316 324 332 315 318 323 315 321 301 312 345 361 320 348 324 295 327 239 336 304 341 292 346 293 329 273 315 313 336 303 319 278 328 315 330 311 269 314 298 303 318 292 305 306 310 319 293 294 306 299 317 316 311 355 297 315 318 310 332 308 340 296 356 320 307 350 306 320 338 327 321 339 249 296 301 277 310 310 345 320 311 330 331 330 358 273 305 333 328 303 308 293 325 381 285 273 332 302 308 299 303 320 295 328 318 354 294 307 322 345 302 301 309 325 323 311 304 322 308 325 337 329 324 307 298 323 303 303 297 326 308 327 306 294 304 284 320 342 330 302 329 316 316 304 290 330 298 326 337 337 335 321 298 326 334 320 295 326 342 336 309 329 308 309 300 351 341 339 339 341 331 329 324 327 322 304 323 280 316 344 334 336 311 336 330 337 341 325 339 317 306 302 365 297 323 337 302 325 321 343 309 348 340 335 332 325 322 321 302 325 321 316 310 327 343 328 309 312 288 328 334 352 277 302 316 291 335 304 313 293 320 297 314 344 320 318 335 320 321 319 345 304 331 310 339 361 301 307 323 338 282 335 311 319 314 315 325 293 314 343 360 302 293 361 340 346 330 307 317 360 278 340 337 337 286 331 324 311 358 321 326 331 326 348 299 320 319 304 315 350 313 308 289 308 326 294 311 330 317 286 281 307 310 312 282 303 318 316 320 341 302 298 319 294 309 287 309 281 306 299 282 302 344 323 323 314 341 328 312 313 301 293 308 292 337 287 340 284 243 277 289 318 282 322 289 306 270 298 310 300 310 263 293 318 306 290 260 287 306 298 287 289 285 313 292 302 287 299 303 301 271 295 284 287 287 312 287 276 293 293 295 295 292 268 272 277 314 291 266 304 280 270 270 272 272 279 277 314 286 279 265 284 305 246 272 276 283 228 282 296 258 295 259 278 259 271 286 273 298 265 239 259 274 293 273 246 297 277 268 272 274 292 282 273 262 241 265 289 291 279 264 270 280 271 332 286 272 260 283 273 299 284 259 306 235 270 292 262 302 266 251 284 279 273 262 277 272 256 276 279 301 250 272 245 264 264 293 270 272 288 250 271 276 256 305 275 259 243 262 228 286 246 272 289 291 260 269 271 272 267 278 275 267 264 231 261 281 278 256 269 277 278 283 261 268 257 276 281 281 248 246 315 268 301 257 268 267 258 250 282 248 268 293 275 285 271 238 287 265 274 277 285 244 243 267 284 248 261 279 270 285 311 289 264 323 287 299 303 262 272 256 282 295 280 282 307 242 278 270 278 282 242 293 240 270 276 272 282 258 261 233 267 273 316 277 273 245 293 262 281 278 298 295 273 279 272 283 272 267 240 248 266 286 293 250 286 270 271 261 280 300 278 287 267 257 275 272 292 245 242 270 260 240 267 240 273 247 273 250 292 280 266 234 288 240 240 281 303 265 244 283 319 265 260 257 265 236 269 241 277 281 243 258 246 261 272 276 276 262 244 269 245 246 239 236 234 257 259 249 277 268 268 267 218 235 247 223 248 238 247 226 237 264 233 240 267 244 264 248 259 260 264 234 247 235 232 244 246 258 247 273 280 233 248 233 240 250 249 228 266 232 245 230 242 248 234 227 235 249 259 239 273 250 258 239 263 290 230 237 220 233 256 226 275 244 272 249 242 234 236 269 245 223 240 243 235 264 242 244 251 236 267 269 225 231 283 226 275 263 225 259 223 257 242 207 239 244 259 230 239 239 278 221 230 259 221 286 211 231 223 239 223 236 266 258 227 248 258 241 222 259 241 227 275 237 263 243 214 241 231 258 262 236 236 264 238 219 233 250 234 221 221 246 244 228 229 237 234 224 251 231 222 243 227 287 242 240 268 240 261 243 243 245 282 244 235 235 262 208 259 223 227 260 276 214 228 201 224 226 227 227 238 204 244 221 257 264 239 219 237 230 238 210 247 223 257 242 227 230 220 213 224 257 213 267 242 228 223 214 215 231 231 259 209 230 231 242 238 217 210 230 207 228 234 237 220 238 236 229 248 257 222 228 256 238 256 269 220 259 215 233 228 244 231 222 244 197 256 225 217 256 217 213 215 267 234 258 221 242 214 226 208 232 242 224 242 212 223 227 259 245 218 223 211 232 243 220 214 219 246 198 220 239 215 260 199 211 231 208 247 209 208 246 244 245 236 235 230 227 227 228 225 238 240 256 241 245 247 230 223 261 184 223 245 223 224 250 216 262 224 236 215 231 226 191 214 246 221 211 221 229 250 248 221 230 229 265 230 241 242 228 228 242 217 258 217 234 232 234 214 234 249 225 226 264 236 232 247 237 215 207 229 235 215 220 237 235 219 219 212 212 227 218 247 208 220 209 210 276 244 226 226 214 225 210 238 215 233 241 210 244 230 246 215 222 239 233 218 212 213 226 218 234 222 223 213 220 260 232 216 227 237 217 218 222 276 206 239 232 235 265 224 228 205 259 229 227 250 232 218 257 228 228 233 247 258 258 246 213 243 237 217 243 240 195 215 217 219 248 231 234 228 247 263 210 227 226 240 244 260 201 256 218 229 242 231 241 258 237 226 212 235 269 236 256 222 226 223 266 258 248 231 248 244 212 249 283 263 218 214 239 221 215 216 234 222 217 248 267 220 226 220 203 200 227 224 228 241 242 274 246 231 222 228 227 233 230 208 225 215 238 256 261 211 232 207 220 233 226 245 220 243 224 210 244 237 236 238 242 226 231 225 263 258 221 236 263 261 234 249 231 243 251 230 248 228 263 217 228 230 269 227 234 200 233 258 232 210 218 240 228 243 234 228 267 228 243 247 250 232 249 248 265 229 227 272 233 214 195 239 272 258 251 221 234 221 241 226 250 223 242 260 248 260 235 251 242 238 260 236 218 235 250 256 262 248 235 238 269 238 282 281 272 258 228 262 268 263 267 261 266 239 266 235 273 259 262 289 271 280 271 270 257 285 281 269 299 301 282 281 287 302 287 291 294 312 271 312 284 301 311 293 294 286 327 312 287 266 277 274 272 277 308 247 275 249 263 285 264 273 250 287 283 283 273 270 242 240 297 247 258 270 249 284 246 264 285 268 263 265 265 258 307 259 241 267 264 277 269 251 289 277 250 246 271 246 280 266 222 244 241 278 232 235 238 277 275 267 286 297 270 282 273 279 268 269 267 291 268 248 250 285 270 259 295 284 287 259 288 292 245 299 256 280 292 276 268 279 292 304 302 289 304 282 273 287 248 241 271 274 292 251 284 289 292 276 265 268 269 258 294 279 307 282 262 296 273 312 295 294 289 272 316 304 335 278 284 292 324 284 310 285 306 288 292 315 322 294 292 284 293 319 271 297 325 307 314 290 304 292 297 296 315 311 282 286 284 309 284 322 306 322 273 296 319 283 302 296 300 317 309 310 322 299 312 337 286 285 306 301 286 281 304 284 300 305 273 302 303 308 302 299 325 305 308 314 289 319 307 330 330 286 300 310 308 299 299 294 305 280 289 297 300 337 309 305 288 295 311 293 313 286 302 309 285 295 349 337 282 290 302 282 288 286 310 296 281 281 276 308 304 345 280 269 310 306 323 286 314 285 303 276 285 288 276 304 309 277 314 275 277 292 249 303 297 270 277 315 290 297 267 271 280 294 234 284 280 283 292 290 247 242 233 250 280 236 258 261 257 276 268 259 275 239 284 229 286 271 268 263 278 292 261 229 276 272 277 259 243 294 247 247 299 267 269 245 278 274 246 257 242 249 269 239 250 250 238 277 243 242 238 222 239 216 271 232 258 230 232 250 250 258 228 242 229 246 229 239 226 263 240 241 268 230 247 236 200 214 229 232 236 218 230 232 212 237 242 240 236 224 221 233 221 239 213 248 246 210 215 216 246 244 214 218 197 232 216 208 196 219 240 206 219 236 202 256 227 191 229 215 247 215 224 210 193 226 212 223 241 201 224 204 222 200 228 220 211 213 213 223 234 217 204 211 190 220 208 203 216 198 219 224 265 182 208 200 214 246 192 222 209 184 204 206 262 197 198 204 245 191 231 223 230 200 199 212 220 220 233 236 210 191 203 214 204 205 229 183 216 224 220 227 229 230 226 193 199 212 250 166 203 205 204 237 192 225 201 227 219 197 194 194 211 218 208 197 204 191 198 217 170 201 202 187 223 176 200 211 205 192 210 202 217 211 199 209 197 192 192 234 216 220 184 175 185 183 193 185 205 217 201 203 195 205 205 193 211 196 198 223 211 213 203 209 215 182 210 220 207 207 206 202 216 210 192 187 200 197 219 237 214 228 202 213 207 194 207 185 201 200 225 212 187 203 187 197 205 195 219 204 187 232 175 211 212 195 196 224 189 202 204 160 200 200 188 219 187 206 177 197 228 201 238 199 168 179 195 209 191 176 201 202 193 199 195 203 177 187 200 196 194 207 207 190 210 189 179 195 200 198 203 197 178 193 206 193 186 199 192 195 176 197 187 203 188 215 178 178 187 194 203 190 202 190 220 193 187 182 161 183 192 190 173 203 185 180 172 186 197 207 194 195 184 206 191 164 196 195 202 177 178 190 192 180 194 182 171 188 197 203 187 191 202 190 193 172 192 191 183 155 179 200 203 176 187 187 164 181 171 200 183 168 210 187 188 173 193 191 176 171 189 179 179 178 173 175 184 184 193 199 189 180 221 190 187 149 176 174 188 179 196 188 180 177 162 202 209 201 176 152 191 183 206 198 194 196 210 186 175 181 202 205 194 189 162 174 181 195 167 170 175 190 188 187 195 181 171 202 180 179 182 174 182 186 195 171 176 170 184 176 163 171 180 181 190 183 199 176 167 188 185 206 165 175 159 174 176 181 192 200 171 179 198 207 169 184 182 174 172 188 186 163 180 168 188 190 221 164 192 186 182 190 161 165 211 175 160 178 187 194 189 200 191 184 186 157 169 210 189 180 199 200 190 191 198 198 180 174 167 200 178 196 185 192 182 172 208 186 191 176 173 172 192 209 180 177 184 186 191 159 186 189 191 182 188 165 180 161 186 172 178 177 178 175 201 182 183 184 193 183 151 165 192 180 185 167 200 192 191 184 199 172 214 186 162 190 175 170 193 169 150 198 194 196 210 177 193 166 188 199 152 213 168 174 186 188 198 182 168 172 150 143 186 181 183 175 196 198 182 174 191 175 192 169 163 199 183 167 179 184 177 177 184 204 186 183 173 190 209 191 176 207 174 179 164 162 188 197 161 161 195 195 185 184 204 163 180 152 175 182 172 185 172 192 202 174 198 179 194 201 200 186 187 190 176 168 189 182 192 191 176 176 196 144 204 191 161 205 162 174 164 158 182 189 171 176 210 176 188 172 165 185 187 184 170 168 197 177 170 152 179 201 175 186 192 180 178 188 192 177 183 158 172 196 173 174 184 189 188 172 145 154 162 187 206 178 169 184 174 161 180 190 172 182 172 180 187 170 180 203 190 168 187 186 191 161 172 214 181 187 195 162 180 171 167 168 184 165 191 171 179 194 175 185 187 169 183 175 187 195 186 165 189 174 211 201 178 172 187 170 191 202 188 186 185 191 180 204 162 165 179 175 186 155 182 188 202 177 175 176 166 188 192 159 187 158 175 192 200 191 171 196 188 182 213 182 171 181 183 206 190 170 197 191 172 190 185 181 197 184 170 164 173 195 180 200 196 197 200 184 196 187 194 196 189 202 182 182 185 188 182 189 175 189 179 186 182 180 202 187 156 188 147 167 181 162 191 183 177 153 178 196 168 169 196 201 178 196 172 161 187 208 215 173 179 176 193 178 181 173 176 193 186 175 164 188 188 184 186 167 177 162 181 178 181 200 203 155 184 191 188 200 192 190 161 184 165 192 175 151 200 173 191 185 176 173 193 189 186 183 186 188 177 145 205 194 175 183 157 184 188 182 169 164 168 183 178 199 170 193 172 168 164 198 182 173 185 188 167 174 195 150 171 169 152 187 193 177 174 182 175 196 181 161 161 173 186 174 203 171 172 192 167 178 169 170 162 153 195 205 185 189 176 168 186 175 168 194 157 170 161 172 158 154 202 181 170 197 184 199 175 191 172 169 174 199 190 173 179 176 216 178 162 189 174 169 180 202 173 171 194 165 207 208 183 180 174 176 181 179 193 202 162 202 161 181 172 159 199 180 177 195 163 185 157 218 164 163 181 187 167 214 168 152 180 179 175 162 161 187 203 184 186 170 184 192 184 156 175 168 158 195 174 172 165 175 194 166 178 172 172 192 198 186 205 181 164 213 192 194 177 176 171 185 187 176 173 181 176 182 182 188 160 188 204 186 181 199 189 185 201 181 186 172 175 187 178 183 191 174 199 208 211 213 190 188 201 180 181 198 188 178 201 184 187 174 181 213 149 167 180 158 162 216 202 169 177 172 195 187 187 172 173 186 175 189 167 183 201 166 177 181 194 201 195 183 162 173 151 177 169 171 166 198 177 169 171 176 198 181 185 178 173 161 208 182 196 167 190 179 193 204 192 175 189 186 176 172 177 178 186 183 196 170 171 216 165 186 178 199 176 168 190 175 187 174 186 201 170 197 181 167 193 152 168 180 198 196 186 185 183 179 157 201 191 177 162 184 186 200 185 198 197 172 210 201 189 202 195 164 191 161 176 175 179 168 205 160 202 177 196 183 204 168 180 194 194 179 177 181 191 174 189 203 193 174 178 180 182 193 192 170 173 169 173 162 201 195 174 191 199 196 176 168 185 163 168 184 204 182 206 174 169 179 172 173 198 175 185 190 189 189 184 189 171 166 175 185 176 175 190 177 194 214 219 165 190 185 175 204 159 187 185 179 149 183 174 196 181 195 213 183 192 188 200 172 195 165 182 207 206 174 212 179 210 160 184 179 188 192 179 201 186 180 201 177 157 168 191 231 199 188 193 198 169 177 192 162 186 203 170 163 169 197 187 184 198 197 199 183 177 193 183 174 149 190 169 174 182 199 157 180 181 171 163 228 167 173 185 204 175 178 164 201 211 189 173 188 202 190 214 193 175 171 189 190 188 192 163 201 177 155 205 189 188 168 181 187 189 181 217 199 190 176 190 190 174 192 188 185 215 208 187 189 168 191 176 197 188 181 188 226 180 189 187 201 196 190 177 164 171 187 170 196 189 174 166 185 178 201 189 162 184 184 199 175 173 195 183 195 184 183 180 196 210 213 191 190 209 166 198 163 222 205 197 196 185 201 220 196 185 186 210 198 175 196 187 204 195 208 189 188 197 237 184 184 192 185 185 214 179 212 213 196 192 182 193 177 186 207 179 184 178 196 201 169 183 207 177 201 188 203 190 199 206 214 191 208 169 180 202 200 192 198 176 175 193 190 175 176 191 196 214 206 188 181 168 162 215 202 197 184 217 205 200 194 204 188 218 207 230 198 205 225 193 213 208 188 199 218 209 200 215 203 208 200 181 204 189 221 194 183 204 207 185 203 189 183 206 199 215 206 190 212 206 216 176 211 189 208 186 206 183 210 181 194 207 190 203 180 194 177 212 190 190 192 203 199 178 205 174 184 188 187 191 196 190 208 193 196 207 200 200 191 188 209 205 190 187 200 136 198 196 221 192 171 216 177 200 187 192 202 224 193 215 162 190 195 216 200 209 200 194 198 187 200 190 190 182 180 198 200 219 180 201 207 208 218 229 196 207 210 185 206 171 172 198 174 201 194 215 220 190 201 161 189 214 209 178 213 197 223 204 219 194 194 219 197 184 211 198 190 197 199 211 192 181 192 188 193 183 216 175 178 193 187 213 175 220 209 192 201 204 210 203 183 185 196 201 185 194 223 212 214 197 205 176 193 185 201 227 188 199 200 204 192 197 181 197 200 209 194 183 183 192 218 181 190 193 220 204 193 191 221 191 204 184 217 209 208 203 220 181 195 198 183 200 175 195 183 183 188 187 200 185 195 199 211 212 202 182 192 210 211 190 193 178 218 198 199 219 195 207 195 181 226 213 195 189 209 195 193 195 188 208 220 186 224 215 189 217 189 194 209 220 218 188 197 230 213 188 190 216 234 180 191 218 228 194 216 192 193 208 168 177 200 187 223 201 192 228 206 217 210 193 179 208 187 206 212 176 210 225 219 187 188 221 201 214 187 231 199 208 208 223 164 199 212 198 225 204 236 201 226 228 220 247 212 183 192 204 227 190 193 228 205 208 208 223 206 190 214 205 198 184 214 201 205 211 203 192 240 204 188 202 180 218 208 228 220 212 206 190 199 197 221 215 194 196 216 217 226 196 196 187 208 211 221 225 215 223 226 209 207 214 216 186 226 190 185 233 215 212 185 226 210 225 195 201 202 198 228 204 220 206 232 239 199 205 209 220 211 195 222 207 206 215 223 191 228 200 205 207 218 209 214 205 211 230 207 216 209 208 207 201 239 214 231 219 193 211 202 212 172 250 218 196 190 174 218 221 195 219 227 224 217 224 235 215 205 210 214 216 200 204 208 280 218 203 214 197 224 217 214 223 201 234 219 211 248 199 200 192 223 188 224 223 215 213 180 198 227 197 198 214 209 233 221 212 218 201 203 200 226 218 215 200 201 236 218 195 204 250 219 214 201 214 258 203 221 223 194 206 215 214 243 208 230 257 208 222 209 225 211 210 200 206 214 224 209 200 203 207 220 229 212 215 210 202 218 248 227 223 234 205 219 214 243 214 205 223 202 190 248 236 217 196 213 221 186 209 239 223 239 194 235 235 225 223 210 213 210 224 216 188 210 221 223 211 204 210 230 223 191 242 196 186 224 208 223 226 216 201 212 221 220 216 223 214 224 199 208 227 219 192 230 204 224 227 214 218 203 203 208 225 206 194 206 232 207 222 235 205 209 216 234 219 217 201 238 225 227 230 237 198 194 202 193 221 194 221 205 217 214 225 219 240 235 198 226 215 218 212 219 230 224 218 236 214 221 212 211 213 217 206 227 216 182 215 199 219 230 241 216 221 214 203 205 208 220 233 228 201 212 201 191 199 231 207 216 221 230 209 232 173 206 206 187 211 221 210 215 205 208 229 198 240 195 243 201 210 241 224 200 217 199 211 205 217 216 213 236 224 196 204 209 203 224 196 224 216 227 223 217 192 210 213 210 185 203 210 218 202 197 222 224 193 223 203 203 224 195 212 200 223 243 216 181 207 231 200 200 206 224 209 191 217 205 231 195 205 180 213 232 221 211 200 216 223 205 222 220 203 229 197 228 210 174 195 230 191 229 199 212 182 187 199 209 203 179 209 208 200 200 231 217 221 214 199 202 185 185 225 213 206 235 210 201 189 207 187 223 215 224 216 214 205 202 212 228 217 219 189 197 188 214 199 220 194 205 214 220 205 201 221 200 233 224 207 213 202 218 203 193 234 194 230 199 196 185 217 208 194 201 192 204 213 225 210 237 249 214 239 208 210 244 232 240 224 209 218 236 217 229 185 168 215 203 222 196 219 206 211 210 219 218 246 221 188 204 211 198 223 216 237 220 216 201 234 205 173 208 208 222 197 198 206 214 214 208 218 225 189 195 213 230 232 190 185 225 221 203 200 205 224 192 214 219 218 226 199 259 220 213 218 199 241 205 201 223 215 201 202 210 213 195 224 238 215 199 204 201 217 234 201 191 196 204 207 245 202 211 198 219 186 198 200 210 194 223 210 206 188 209 196 191 220 217 222 194 213 194 212 187 224 214 178 183 186 212 227 226 227 183 194 204 212 226 200 202 227 182 203 224 197 215 209 187 205 235 189 180 233 203 219 231 230 217 248 216 209 233 243 212 209 204 203 226 222 205 213 224 194 246 205 207 210 222 203 230 229 208 218 183 225 207 224 217 214 211 199 220 223 236 200 224 205 230 200 221 235 220 209 221 208 221 219 211 173 220 221 236 237 234 249 219 199 219 216 225 219 225 211 207 225 233 211 250 210 222 223 229 210 226 207 231 247 213 230 231 230 238 229 211 241 241 234 206 207 209 209 209 196 221 257 194 208 204 244 235 228 226 236 214 238 219 213 206 208 215 231 221 210 219 250 260 248 239 242 227 239 249 222 224 237 220 235 213 238 215 194 226 243 226 223 217 247 212 231 226 257 248 225 228 257 241 257 236 246 242 207 234 229 250 212 223 250 242 235 219 236 264 237 198 244 242 246 228 222 240 240 215 221 287 272 239 244 225 247 239 219 245 239 229 231 267 249 250 233 250 233 244 247 237 230 262 206 263 268 234 238 193 269 242 236 261 238 248 271 262 274 228 232 262 268 230 279 235 226 256 236 249 268 250 276 245 250 222 247 258 248 266 224 256 268 277 226 238 228 262 284 257 246 234 236 256 272 282 236 232 244 268 272 247 283 276 260 281 266 269 281 279 284 245 282 269 304 245 278 257 298 278 280 274 268 249 266 281 268 265 250 264 270 281 273 290 289 268 294 319 307 310 271 283 292 272 289 256 290 295 296 322 277 301 269 278 310 298 270 279 277 292 313 294 279 272 314 286 263 310 329 311 276 303 297 319 288 343 289 301 292 282 299 346 330 295 332 326 275 289 341 302 331 276 319 302 305 344 325 283 311 321 302 311 337 302 323 293 341 312 303 327 329 312 321 282 294 320 319 351 355 318 313 326 310 335 368 335 321 349 329 327 359 319 331 350 347 384 321 362 337 305 328 327 340 356 342 323 322 324 326 330 329 335 349 333 361 330 309 343 338 325 340 349 338 338 311 372 320 336 348 366 353 336 347 331 314 339 324 337 321 323 348 334 364 335 353 348 327 313 346 347 332 347 348 313 323 320 291 312 326 299 321 310 319 337 295 311 305 341 304 315 310 317 303 320 321 322 345 297 338 307 278 319 284 316 296 309 323 280 286 316 284 280 308 274 301 289 278 322 298 325 297 299 282 322 307 289 295 310 307 284 292 299 276 293 247 324 293 278 283 280 270 290 260 287 298 243 237 291 305 278 266 251 267 258 263 297 293 270 281 264 247 266 256 306 271 280 281 266 248 250 248 287 245 240 277 242 249 303 233 248 243 261 246 244 278 259 258 260 264 248 237 223 263 242 274 239 258 231 248 279 240 242 268 246 268 229 235 244 226 281 229 240 246 213 259 234 261 251 266 242 217 257 230 256 242 231 229 199 232 213 224 235 241 250 234 222 228 230 231 214 219 200 243 222 195 220 228 231 243 222 218 222 212 197 217 200 209 207 211 220 180 214 218 230 211 244 214 200 213 219 195 218 221 216 221 219 203 204 233 217 215 226 227 202 198 222 224 202 192 205 193 189 220 211 205 194 213 192 198 210 201 207 208 196 222 209 198 200 197 213 192 229 197 222 211 185 228 201 182 195 206 174 194 200 202 189 223 183 202 184 187 212 213 205 172 180 208 175 200 197 207 198 196 212 203 191 187 172 217 185 216 203 181 180 191 184 193 207 183 226 190 192 186 179 208 185 205 205 190 162 191 195 218 203 198 205 177 220 178 184 190 172 197 192 177 178 154 212 197 205 195 211 201 218 207 187 185 175 191 176 183 192 212 212 191 199 181 187 191 174 210 199 168 211 189 203 192 183 210 207 156 156 188 189 182 187 195 182 196 183 187 193 196 200 179 200 187 177 182 182 189 192 179 200 191 205 190 188 194 196 171 206 176 208 189 173 172 183 168 194 179 194 184 199 174 164 181 162 198 189 201 183 172 167 171 191 176 188 182 202 184 202 187 171 176 167 183 208 200 183 198 169 164 173 175 156 181 175 173 192 189 201 212 171 202 196 169 172 167 177 203 191 158 164 163 207 190 169 189 160 181 172 180 181 175 188 175 182 162 173 167 200 195 197 171 203 161 197 163 181 188 160 176 176 176 151 170 190 186 176 160 174 181 141 178 192 169 177 172 189 167 184 187 184 191 196 190 163 142 185 195 187 176 168 171 185 189 163 178 186 174 187 155 165 163 171 177 190 157 183 194 172 165 173 181 153 175 176 184 186 165 169 173 179 176 185 178 157 188 182 167 177 188 185 187 200 181 187 172 183 176 182 180 158 176 149 174 181 184 190 163 188 188 192 173 152 145 173 170 160 187 186 175 208 166 207 170 184 177 176 198 164 160 169 178 175 185 167 164 204 164 167 175 154 186 203 187 145 164 175 172 180 180 178 178 190 181 171 157 176 181 168 172 186 169 184 182 191 168 176 177 190 176 183 183 180 184 154 174 172 206 164 182 157 189 197 186 178 187 159 171 142 144 193 171 181 179 188 173 153 164 172 171 162 166 168 198 153 188 163 169 159 166 155 181 192 168 171 203 145 159 177 179 136 170 160 150 162 166 189 166 183 184 153 186 173 164 160 165 171 148 192 166 191 191 176 155 169 189 175 171 174 143 181 168 176 175 163 171 204 173 159 165 160 165 154 146 161 178 174 136 169 166 166 176 173 158 166 170 173 169 179 178 158 161 133 179 162 157 154 177 153 151 150 158 169 172 183 177 176 162 165 156 159 204 171 141 154 171 178 160 190 164 188 153 178 151 167 171 169 153 168 168 140 161 153 170 183 154 173 164 153 170 161 138 166 183 184 181 167 182 173 168 157 159 149 157 159 166 150 167 165 190 171 152 142 167 173 156 163 181 170 157 142 154 154 159 186 180 202 172 170 149 187 168 159 149 171 155 157 177 178 179 161 160 177 177 147 146 183 141 158 166 145 181 173 153 162 183 162 183 162 157 152 179 168 149 152 174 169 168 166 174 171 175 149 173 150 168 145 187 169 177 165 178 180 167 163 165 150 181 141 168 173 167 187 152 148 159 161 157 160 155 173 158 159 154 142 159 173 155 172 146 160 159 192 149 169 144 159 168 154 143 179 162 168 140 149 145 151 150 141 171 146 159 193 123 153 157 175 158 156 161 141 157 166 151 150 156 156 174 183 192 151 154 164 162 170 172 166 182 179 174 154 163 147 147 167 151 187 159 157 181 138 166 145 166 168 162 159 158 158 160 163 155 166 187 167 148 176 152 164 152 188 146 163 139 171 162 164 147 148 193 182 150 152 149 146 152 150 181 156 164 138 156 144 158 137 185 164 159 161 166 178 159 155 150 169 151 139 153 145 153 152 154 168 174 135 169 169 165 162 161 149 145 165 143 151 151 167 173 162 155 150 140 150 172 168 144 163 147 174 159 172 174 157 169 136 160 160 158 147 174 158 158 177 150 153 165 156 152 169 183 144 144 159 160 168 159 145 173 139 149 154 136 140 154 167 160 161 158 139 166 155 147 171 182 152 173 160 145 147 137 133 155 160 156 184 154 149 172 158 165 169 141 159 158 128 148 171 159 145 146 165 150 155 161 141 167 153 161 158 148 154 133 151 157 147 134 135 159 146 133 159 159 140 139 171 149 177 164 149 175 154 149 153 157 168 158 157 139 146 146 161 149 132 155 157 154 159 158 158 161 134 153 146 158 166 146 137 149 156 174 152 149 189 141 172 146 159 151 166 137 165 168 156 145 152 160 127 139 175 146 160 179 168 143 156 144 151 131 156 163 130 154 168 130 130 145 164 141 148 150 149 153 144 154 134 160 153 155 145 176 148 156 155 149 147 165 156 146 151 164 151 153 152 149 160 153 158 176 158 163 158 169 139 180 144 150 160 146 161 149 142 137 156 139 144 177 165 146 159 181 144 154 151 125 170 159 141 161 135 160 160 154 157 153 155 163 163 144 139 151 156 159 169 133 153 167 156 160 155 149 156 146 148 154 135 141 171 159 143 150 153 140 181 163 150 162 146 151 164 156 172 157 180 135 141 139 133 130 138 170 145 151 131 161 123 155 155 113 133 137 185</intensities>
			</dataPoints>
		</scan>
	</xrdMeasurement>
</xrdMeasurements>
