<?xml version="1.0" encoding="UTF-8"?>
<xrdMeasurements xmlns="http://www.xrdml.com/XRDMeasurement/1.7" xmlns:xsi="http://www.w3.org/2001/XMLSchema-instance" xsi:schemaLocation="http://www.xrdml.com/XRDMeasurement/1.7 http://www.xrdml.com/XRDMeasurement/1.7/XRDMeasurement.xsd" status="Completed">
	<comment>
		<entry>Configuration=Conf. Reflection-transmission spinner, Owner=User-1, Creation date=2/28/2018 8:43:02 AM</entry>
		<entry>Goniometer=Theta/Theta; Minimum step size 2Theta:0.0001; Minimum step size Omega:0.0001</entry>
		<entry>Sample stage=Reflection-transmission spinner; Minimum step size Phi:0.1</entry>
		<entry>Diffractometer system=EMPYREAN</entry>
		<entry>Measurement program=C:\PANalytical\Data Collector\Programs\sample-1.xrdmp, Identifier={BB6687EE-8248-4E06-B0C7-67735DEB5D7E}</entry>
		<entry>Batch program=C:\PANalytical\Data Collector\Programs\P3.xrdmp, Identifier={110013A4-273B-4C82-A4D1-871885B7687B}</entry>
	</comment>
	<sample type="To be analyzed">
		<id></id>
		<name></name>
		<preparedBy></preparedBy>
	</sample>
	<xrdMeasurement measurementType="Scan" status="Completed" sampleMode="Reflection">
		<comment>
			<entry>PHD Lower Level = 4.02 (keV), PHD Upper Level = 11.27 (keV)</entry>
		</comment>
		<usedWavelength intended="K-Alpha 1">
			<kAlpha1 unit="Angstrom">1.5405980</kAlpha1>
			<kAlpha2 unit="Angstrom">1.5444260</kAlpha2>
			<kBeta unit="Angstrom">1.3922500</kBeta>
			<ratioKAlpha2KAlpha1>0.5000</ratioKAlpha2KAlpha1>
		</usedWavelength>
		<incidentBeamPath>
			<radius unit="mm">240.00</radius>
			<xRayTube id="1010048" name="Empyrean Cu LFF HR (9430 033 7310x) DK427586">
				<tension unit="kV">40.0</tension>
				<current unit="mA">40.0</current>
				<anodeMaterial>Cu</anodeMaterial>
				<focus type="Line">
					<length unit="mm">12.0</length>
					<width unit="mm">0.4</width>
					<takeOffAngle unit="deg">4.4</takeOffAngle>
				</focus>
			</xRayTube>
			<xRayMirror id="27020009" name="Bragg-Brentano HD" hybrid="false">
				<crystal type="Graded" shape="Flat">BB/HD</crystal>
				<acceptanceAngle unit="deg">0.800</acceptanceAngle>
				<length unit="mm">55.3</length>
			</xRayMirror>
			<sollerSlit id="21010002" name="Soller slits 0.04 rad.">
				<opening unit="rad">0.0400</opening>
			</sollerSlit>
			<mask id="22030009" name="Fixed mask 10 mm">
				<width unit="mm">10.00</width>
			</mask>
			<antiScatterSlit id="22010003" name="Fixed slit 1°" xsi:type="fixedAntiScatterSlitType">
				<height unit="mm">1.52</height>
			</antiScatterSlit>
			<divergenceSlit id="22010005" name="Fixed slit 1/4°" xsi:type="fixedDivergenceSlitType">
				<distanceToSample unit="mm">140.00</distanceToSample>
				<height unit="mm">0.38</height>
			</divergenceSlit>
		</incidentBeamPath>
		<diffractedBeamPath>
			<radius unit="mm">240.00</radius>
			<antiScatterSlit id="22090010" name="AS slit 8.0 mm (PIXcel)" xsi:type="fixedAntiScatterSlitType">
				<height unit="mm">8.00</height>
			</antiScatterSlit>
			<sollerSlit id="21020003" name="Large Soller slits 0.04 rad.">
				<opening unit="rad">0.0400</opening>
			</sollerSlit>
			<detector id="7010019" name="PIXcel1D-Medipix3 detector" xsi:type="rtmsDetectorType">
				<phd unit="%">
					<lowerLevel>25.0</lowerLevel>
					<upperLevel>70.0</upperLevel>
				</phd>
				<mode>Scanning</mode>
				<activeLength unit="deg">3.3482</activeLength>
			</detector>
		</diffractedBeamPath>
		<scan appendNumber="0" mode="Continuous" scanAxis="Gonio" status="Completed">
			<header>
				<startTimeStamp>2025-12-28T17:10:10+08:00</startTimeStamp>
				<endTimeStamp>2025-12-28T17:21:41+08:00</endTimeStamp>
				<author>
					<name>User</name>
				</author>
				<source>
					<applicationSoftware version="5.5a">Data Collector</applicationSoftware>
					<instrumentControlSoftware version="7.9j 20171025">EMPYREAN</instrumentControlSoftware>
					<instrumentID>0000000011214615</instrumentID>
				</source>
			</header>
			<dataPoints>
				<positions axis="2Theta" unit="deg">
					<startPosition>6.00558257</startPosition>
					<endPosition>75.99655438</endPosition>
				</positions>
				<positions axis="Omega" unit="deg">
					<startPosition>3.00279129</startPosition>
					<endPosition>37.99827719</endPosition>
				</positions>
				<positions axis="Phi" unit="deg">
					<commonPosition>0.0</commonPosition>
				</positions>
				<commonCountingTime unit="seconds">13.770</commonCountingTime>
				<intensities unit="counts">441 433 496 436 459 472 450 422 481 439 433 432 408 426 420 445 442 444 446 416 451 438 459 424 448 432 434 411 448 411 458 458 415 464 435 448 422 447 403 470 436 458 440 447 450 416 393 464 451 429 473 425 467 436 452 440 427 483 449 436 418 435 432 428 476 451 465 421 457 425 441 447 420 437 430 416 480 450 446 418 436 402 415 409 437 454 444 461 425 456 472 448 445 449 433 430 431 427 479 393 421 446 439 436 397 451 453 431 426 420 423 436 410 445 460 450 449 441 410 434 465 448 432 443 426 485 456 406 498 422 457 438 425 426 451 490 410 418 418 443 433 426 444 399 421 442 439 442 437 411 441 449 474 421 408 455 457 409 418 411 431 420 411 408 422 424 442 444 438 401 439 425 427 435 441 387 424 438 419 432 445 435 396 445 419 455 453 463 437 449 426 417 420 425 384 408 422 427 414 424 401 439 426 408 416 426 431 466 396 408 457 403 422 410 430 410 452 424 409 375 390 431 407 397 431 467 421 413 417 405 417 393 399 406 425 462 418 418 426 440 433 415 442 393 457 399 432 391 425 427 404 392 383 426 399 396 434 412 421 413 387 415 457 418 412 431 435 419 406 409 425 401 418 387 442 407 433 427 452 459 412 439 409 412 416 444 402 473 399 408 419 411 422 428 395 451 436 401 408 395 453 406 437 379 383 421 405 446 383 402 435 441 382 418 407 387 423 427 391 392 374 422 434 412 395 411 391 386 401 421 365 399 422 405 409 398 456 402 423 421 386 424 380 358 427 409 424 421 424 414 431 413 407 419 398 436 437 426 400 440 407 409 420 374 376 364 410 422 403 401 377 393 394 422 420 393 380 418 436 444 400 437 379 422 375 417 361 371 426 428 422 386 380 413 406 378 380 399 413 399 407 407 420 432 351 408 430 411 386 417 398 400 459 366 394 415 427 395 392 426 426 389 349 403 441 400 413 426 396 391 396 412 384 392 400 433 389 423 385 375 405 410 420 405 370 397 393 438 430 440 432 409 375 406 429 365 405 398 398 387 416 375 381 411 394 386 400 410 412 401 427 393 405 428 363 401 390 411 405 411 410 364 423 404 361 431 412 389 380 418 407 419 420 416 410 381 406 401 386 384 440 376 382 423 403 366 408 389 399 385 415 411 383 392 414 376 413 411 349 402 402 371 367 432 365 418 404 408 359 389 405 383 389 381 384 377 369 355 383 400 395 402 427 417 397 376 397 374 389 392 384 394 399 406 334 424 370 400 392 389 369 383 385 366 377 393 388 387 362 391 354 343 392 378 372 399 367 360 401 365 397 363 358 410 407 381 344 420 340 375 375 401 385 375 397 403 368 353 352 389 423 383 395 381 391 378 397 381 377 372 387 355 355 352 408 352 387 381 351 375 347 355 371 382 364 396 401 368 392 402 391 369 366 387 368 377 378 354 373 359 359 367 421 373 411 410 390 392 386 342 404 354 387 365 372 368 438 322 379 352 369 377 399 365 360 363 383 380 390 430 336 371 379 360 391 373 322 400 341 363 366 340 354 350 352 399 352 363 360 371 351 378 401 393 370 358 338 353 370 372 368 374 354 342 374 363 356 372 371 368 385 377 360 343 351 351 399 350 348 359 352 358 368 342 354 390 368 369 351 379 334 388 394 356 354 352 340 353 383 341 389 349 355 345 360 351 343 351 360 343 373 349 369 333 352 346 375 338 317 335 349 353 362 354 385 345 391 353 368 357 391 358 331 384 356 378 329 371 360 328 298 337 371 353 353 368 346 359 315 396 336 399 343 380 328 360 347 354 318 336 343 322 383 313 340 357 354 368 352 341 332 370 344 372 334 375 352 329 356 357 373 319 310 344 329 334 373 338 323 368 365 312 332 336 338 336 354 343 373 356 379 340 325 354 326 344 331 358 363 303 378 360 363 354 355 338 338 339 323 342 324 342 336 352 360 364 330 347 339 345 318 335 377 279 357 304 349 310 325 326 326 360 342 320 335 350 339 331 352 349 355 323 338 332 324 344 344 320 331 343 359 325 314 335 347 342 346 333 345 345 324 327 334 358 344 326 366 322 305 334 292 342 355 372 343 329 346 293 346 349 345 318 296 338 347 311 347 324 365 314 319 340 349 327 335 350 319 348 334 313 338 302 353 308 325 334 319 308 328 307 347 307 321 328 325 335 294 312 337 320 303 324 322 319 343 317 288 335 320 295 309 318 334 338 325 306 344 328 304 349 319 350 301 341 334 330 339 336 327 329 327 308 323 346 357 307 308 320 319 337 326 323 332 321 316 319 298 329 320 310 320 324 295 316 301 348 325 305 274 333 295 276 300 324 351 327 350 306 316 304 304 352 339 288 300 294 305 315 330 293 328 326 303 357 310 338 342 318 345 316 316 307 285 308 329 327 329 323 282 345 318 307 332 314 331 315 310 311 316 335 335 295 322 318 317 306 333 324 308 302 306 324 311 336 282 310 321 318 307 320 313 310 325 328 308 316 293 286 287 313 323 335 306 308 293 333 308 304 310 329 287 331 327 315 312 300 279 288 317 310 307 326 321 313 302 329 293 308 324 281 308 294 302 315 345 294 320 292 301 290 295 317 332 270 279 291 298 288 323 279 316 302 312 314 302 317 295 324 275 301 301 315 322 298 284 318 308 315 304 301 301 328 306 313 303 280 310 279 289 325 300 300 315 277 322 304 278 287 283 337 297 292 272 347 277 303 290 301 293 307 312 290 278 298 296 292 279 301 306 291 280 283 297 283 291 308 274 281 269 275 298 277 289 305 280 283 283 288 288 259 277 270 312 312 292 270 284 265 306 280 291 278 299 297 284 277 269 281 270 243 278 290 302 295 276 274 274 277 274 294 303 259 300 297 265 284 282 309 243 279 245 297 281 286 267 295 247 285 270 313 289 257 274 282 300 290 256 263 286 294 278 281 304 261 278 272 275 279 319 282 285 265 272 312 298 290 292 271 280 271 280 293 298 292 282 279 241 280 267 283 281 269 270 248 295 291 296 265 293 296 274 261 281 275 284 295 282 275 266 288 282 274 277 270 279 279 262 288 284 275 286 281 242 293 281 275 248 265 294 285 279 280 250 292 272 272 279 277 278 231 231 280 273 266 302 274 284 301 285 283 237 281 275 246 280 277 249 237 273 277 240 281 234 287 244 236 267 261 295 286 273 270 299 248 270 296 291 268 279 286 278 271 272 256 292 262 239 279 268 263 273 227 242 246 272 248 269 282 290 218 281 273 267 250 285 267 240 276 260 243 256 285 263 285 271 291 272 303 284 265 278 285 267 270 283 294 281 302 250 238 293 275 243 298 269 250 273 274 261 262 277 258 288 287 285 258 281 245 283 284 262 276 294 276 300 298 291 271 291 266 290 286 284 300 281 270 248 274 286 301 276 308 269 275 297 290 309 308 291 333 289 295 293 291 262 300 270 297 316 318 329 371 321 332 300 348 343 363 340 353 364 376 390 378 385 409 418 439 421 451 422 461 479 505 474 514 521 581 540 599 601 653 628 696 702 763 769 794 845 958 890 966 1006 1058 1037 1136 1222 1266 1244 1451 1435 1453 1563 1512 1620 1647 1572 1597 1545 1521 1484 1451 1429 1246 1164 1134 1106 987 894 837 730 739 685 594 528 520 499 453 430 427 412 402 369 384 370 323 365 348 322 334 329 317 332 328 300 331 325 319 267 305 276 302 260 305 286 296 276 295 272 286 266 319 286 275 275 264 298 236 270 291 269 248 280 284 245 257 302 248 266 303 275 238 242 277 277 276 308 282 228 267 242 269 237 290 291 232 260 270 265 281 280 295 257 244 268 248 275 311 280 248 270 248 229 275 250 266 242 238 261 243 276 267 245 264 249 263 218 264 229 250 242 264 216 275 227 216 237 257 267 235 242 277 248 224 237 233 240 240 243 237 260 237 230 242 234 237 249 229 266 258 239 267 243 241 231 227 217 224 242 225 228 269 208 216 228 219 245 257 228 247 211 232 258 220 230 225 249 244 243 281 215 233 231 243 236 273 235 213 231 222 256 256 250 223 240 226 256 220 227 244 236 240 270 209 231 217 237 251 265 260 229 231 238 242 234 237 212 236 243 238 270 238 215 209 265 214 210 224 224 204 234 232 212 231 243 234 250 232 240 231 208 226 222 231 219 204 250 219 228 259 233 247 228 233 248 251 239 237 237 232 232 247 247 233 224 226 232 232 244 259 210 224 234 222 242 245 226 240 213 235 256 199 203 213 236 239 259 234 230 225 245 214 246 275 246 243 220 235 217 224 236 229 244 203 216 236 216 227 240 225 231 218 213 222 231 207 234 266 191 233 256 221 210 239 242 279 237 205 227 262 228 238 268 259 239 197 213 234 248 223 212 208 256 239 224 219 235 221 223 256 210 230 218 216 236 221 242 258 220 238 236 221 209 212 222 224 213 225 194 223 233 222 213 218 231 260 224 244 212 234 248 216 232 229 201 243 208 212 218 231 240 204 245 215 201 215 225 195 195 216 242 203 236 234 236 215 241 205 247 225 217 241 240 224 210 211 231 205 221 201 214 242 239 209 239 220 235 238 235 228 210 220 226 221 219 212 212 207 222 216 209 273 198 223 212 217 232 198 270 247 222 222 213 207 226 221 201 225 232 244 216 229 199 249 197 236 264 209 223 213 215 210 204 233 231 192 230 216 245 221 239 208 204 220 187 244 230 217 214 208 250 232 209 217 212 230 197 198 211 216 204 220 218 217 232 214 246 208 200 210 242 208 203 236 224 227 221 226 216 214 235 223 218 217 218 207 214 214 230 216 223 227 226 199 239 214 230 239 206 208 201 205 213 232 230 211 237 204 187 202 215 243 222 197 239 220 217 243 195 198 220 236 226 213 229 224 208 216 259 208 216 224 232 209 240 207 222 213 214 205 198 220 192 211 206 195 202 212 248 249 213 225 229 213 208 216 200 235 237 198 210 200 213 204 264 206 195 217 233 218 201 236 224 210 196 213 199 232 200 219 194 198 206 203 190 201 209 221 213 212 216 212 208 190 235 222 207 201 227 226 244 225 212 228 214 194 203 229 213 222 222 191 207 231 244 220 212 204 208 206 211 217 218 189 199 201 206 210 205 219 196 192 215 202 214 208 192 212 227 228 232 218 227 215 205 226 174 204 208 234 185 215 208 219 201 212 199 217 208 209 215 195 188 205 225 215 210 198 216 191 214 220 185 198 223 211 217 224 215 214 185 210 221 241 215 215 215 230 209 206 199 199 209 217 220 212 216 220 196 211 196 220 176 223 206 213 189 189 199 224 242 185 184 212 196 200 221 199 186 194 192 227 219 229 193 192 222 219 199 219 205 218 182 197 213 188 216 231 180 200 215 197 197 205 193 204 197 201 203 213 219 200 235 196 199 230 214 194 188 198 198 209 217 197 202 214 177 211 227 202 198 199 221 211 183 223 207 223 180 215 219 180 193 197 203 213 224 198 214 190 228 163 235 181 178 194 227 210 198 203 188 198 203 200 181 206 185 202 211 172 194 206 197 162 182 182 194 193 221 182 210 212 186 160 215 183 222 190 213 183 185 189 187 188 217 204 196 207 195 194 218 196 199 176 214 216 209 205 163 178 189 180 190 195 206 191 185 175 190 210 180 198 160 187 180 197 224 191 204 211 211 193 195 199 186 176 189 194 223 227 190 177 188 185 185 208 196 176 174 197 183 202 189 204 177 197 179 204 191 214 195 166 210 179 207 196 183 170 188 193 207 182 192 202 187 192 198 198 205 221 198 207 194 194 209 173 165 195 167 183 188 196 201 199 194 198 176 197 184 204 186 182 203 172 219 170 191 201 192 170 185 193 184 197 182 194 190 185 197 173 206 179 178 180 177 200 219 205 179 185 200 160 181 191 184 173 199 173 187 192 173 183 185 206 199 196 175 159 200 206 200 208 163 191 155 182 177 196 191 208 200 200 178 209 168 192 180 203 191 199 210 174 196 175 227 198 210 184 194 210 221 186 187 196 187 208 214 216 214 201 264 200 201 189 194 199 218 187 209 194 209 210 209 229 189 207 214 203 201 210 196 211 207 172 207 168 184 199 194 185 180 182 189 210 205 181 195 182 186 199 203 191 179 176 227 163 174 203 172 185 170 175 165 171 217 189 178 184 168 186 192 150 184 178 207 186 197 160 179 189 175 195 189 189 185 190 204 176 170 161 205 179 186 175 178 200 173 186 186 175 177 184 171 186 173 163 182 177 186 184 195 186 187 165 167 179 169 187 172 174 179 190 168 176 167 179 194 172 182 170 178 172 190 164 181 184 202 169 193 191 176 171 170 203 166 182 158 173 184 170 210 178 178 145 172 166 190 197 188 174 179 209 159 192 183 188 182 165 155 179 178 184 168 197 170 201 188 186 197 197 205 186 180 185 182 180 173 208 173 191 212 171 173 186 186 184 225 174 182 187 168 194 180 179 176 173 175 184 195 167 186 178 170 185 194 193 194 196 190 183 174 193 195 187 192 198 188 174 178 186 200 209 176 200 211 189 209 194 153 196 241 166 204 202 193 221 183 223 198 193 208 224 196 207 197 196 204 228 190 235 220 217 230 214 231 210 195 188 196 232 227 224 241 262 221 236 250 223 234 231 256 249 281 269 281 281 283 279 306 305 317 298 314 346 364 339 374 417 445 426 457 501 490 550 528 594 600 700 689 779 784 849 856 990 1009 1096 1145 1134 1202 1236 1288 1327 1370 1369 1372 1356 1328 1329 1350 1308 1241 1164 1156 1138 1003 1050 975 908 860 770 786 732 666 624 677 591 555 522 544 492 509 489 467 444 460 423 473 461 446 474 491 428 462 459 488 493 545 522 549 559 572 570 623 652 640 713 742 738 731 874 853 924 918 968 1033 1059 1134 1146 1203 1222 1280 1361 1342 1414 1366 1443 1474 1471 1423 1416 1394 1395 1405 1388 1380 1295 1346 1320 1378 1347 1388 1368 1383 1405 1448 1495 1449 1509 1631 1640 1614 1782 1772 1817 1846 1882 1873 1859 1913 1879 1917 1839 1846 1748 1696 1595 1653 1503 1413 1375 1280 1228 1190 1127 1003 1005 894 813 841 777 699 699 654 615 554 534 515 503 448 416 430 450 390 374 367 369 335 362 352 341 348 315 302 311 300 299 260 286 272 271 270 238 268 238 266 264 241 246 270 220 238 221 243 228 229 228 219 195 200 196 189 194 237 237 224 177 214 206 196 205 229 174 201 189 209 188 195 201 211 205 185 183 186 199 193 181 168 169 171 181 212 185 183 191 174 187 197 180 160 190 174 190 182 178 182 178 188 174 167 168 159 173 189 195 179 183 177 183 165 195 180 175 186 171 173 181 176 182 171 166 168 199 204 202 144 176 178 171 162 162 186 160 177 164 175 159 156 161 176 193 180 165 197 169 146 154 169 177 144 196 155 179 206 192 167 169 194 174 164 152 151 163 178 174 173 162 139 164 170 160 192 181 161 154 194 187 168 166 175 190 167 182 163 150 199 174 152 153 174 179 141 162 145 172 170 176 172 149 150 167 157 172 153 169 161 185 153 190 160 158 139 161 158 156 161 170 162 178 167 151 162 165 172 164 152 145 174 160 161 166 137 164 171 160 162 164 173 167 165 156 169 166 159 154 163 158 141 162 166 155 167 159 176 164 162 171 166 151 179 172 159 162 167 158 157 173 169 145 167 164 151 153 162 183 167 159 136 143 131 163 156 191 170 174 166 148 165 159 172 147 156 159 177 140 170 169 170 152 142 126 169 171 156 145 155 169 171 165 149 140 166 150 179 133 177 176 168 152 150 144 162 148 159 146 181 145 173 138 171 159 168 151 168 162 139 156 171 137 131 140 172 149 146 158 143 145 133 153 155 145 153 152 151 150 171 144 153 158 155 160 160 152 146 159 149 138 153 163 159 155 158 138 154 167 168 151 163 152 151 135 151 164 129 153 169 166 142 164 157 148 196 159 172 147 136 159 168 169 145 142 146 133 137 147 178 138 175 131 160 174 151 164 143 183 156 146 154 149 154 154 165 157 157 146 157 148 144 146 181 129 146 149 122 146 168 146 149 136 160 175 163 152 141 155 157 175 159 149 159 135 159 134 158 161 141 135 137 148 140 145 155 147 154 142 147 172 148 154 152 146 140 150 145 162 154 172 145 146 156 170 159 154 156 171 144 132 135 152 149 164 130 138 147 134 161 139 167 170 150 148 141 173 146 162 148 134 149 137 152 168 175 140 169 148 171 163 156 131 151 135 146 120 159 147 144 128 130 158 149 162 160 148 151 148 134 157 171 155 168 125 153 156 161 148 171 148 135 156 155 162 163 142 162 179 163 156 147 143 147 165 123 157 159 145 156 165 142 110 173 158 147 160 172 154 141 155 134 155 160 168 144 156 149 162 150 152 138 166 152 145 152 140 170 139 170 152 138 154 158 149 142 149 158 161 149 140 150 130 136 153 124 159 151 164 143 143 156 168 136 156 153 144 153 143 134 150 151 139 176 179 157 161 169 149 134 152 168 166 141 141 143 148 170 165 168 165 162 139 137 170 180 169 160 151 153 167 157 170 172 168 167 163 195 207 179 169 189 212 185 242 220 204 219 206 217 236 263 262 277 279 296 303 307 302 312 374 352 380 409 446 392 438 450 436 469 542 497 483 486 511 487 482 452 494 520 483 461 464 437 439 422 351 398 362 363 339 324 318 298 278 290 262 249 256 273 212 236 191 215 200 231 210 217 179 184 172 176 187 194 181 159 170 184 169 158 192 196 192 171 173 177 166 187 184 176 169 156 190 161 156 181 181 169 159 196 193 152 149 183 183 153 171 161 156 164 174 183 148 151 186 154 177 172 173 145 152 197 166 154 184 170 152 171 159 155 182 145 173 172 171 155 175 157 178 176 144 145 138 175 157 184 143 160 178 167 161 153 144 166 154 170 137 171 138 145 154 168 168 184 149 147 139 173 165 156 144 159 165 144 157 156 166 135 156 175 140 160 148 139 143 160 157 165 160 168 147 160 154 156 156 131 128 135 126 165 170 131 160 165 145 157 156 141 159 145 160 138 149 151 130 166 149 147 128 174 153 141 137 169 153 153 117 157 142 142 133 137 150 150 144 163 129 152 131 130 166 158 164 152 143 148 164 149 153 172 147 148 159 146 157 139 173 162 148 143 160 140 152 149 156 153 178 171 129 154 161 138 150 153 156 141 168 173 139 134 140 168 153 159 142 145 138 152 158 155 137 162 148 170 165 129 141 181 162 171 170 162 163 153 169 152 178 164 177 155 159 160 154 149 162 175 160 200 176 178 168 164 169 176 175 174 181 191 170 172 182 203 221 209 229 217 231 217 238 232 268 225 278 288 246 315 299 331 330 303 361 368 394 375 442 436 465 463 462 509 493 575 537 647 647 646 650 693 753 755 820 851 799 831 846 909 881 927 872 857 839 870 829 764 797 797 716 710 688 655 609 671 568 555 496 521 488 448 452 439 390 387 330 354 302 296 286 312 291 260 260 227 227 216 235 227 244 227 203 201 216 213 185 195 170 176 175 178 169 175 157 196 193 188 175 189 150 159 176 176 190 131 147 155 153 166 183 133 199 170 141 146 147 168 164 155 187 171 150 169 149 148 163 160 169 150 161 163 157 145 156 164 163 158 143 153 142 175 146 138 152 155 144 161 158 157 147 150 148 143 143 148 180 151 156 148 162 144 149 139 178 144 144 149 142 135 157 163 160 171 165 159 144 149 134 136 151 161 156 160 147 155 157 152 139 145 153 134 152 175 154 172 161 172 160 178 137 172 181 162 168 144 148 164 150 142 169 164 157 181 177 177 152 192 170 130 172 158 170 149 177 171 168 169 175 185 164 171 172 135 164 183 175 151 169 156 181 177 180 169 186 183 184 158 168 174 169 181 214 186 154 199 175 177 210 185 191 186 169 213 181 186 195 209 176 219 221 206 214 210 219 237 214 233 205 230 234 203 248 285 256 248 257 268 279 315 287 283 336 327 317 349 355 381 445 391 414 442 535 517 519 558 633 676 691 729 787 803 871 918 1008 1061 1158 1190 1295 1379 1491 1465 1558 1704 1640 1822 1773 1962 1992 1976 2037 2028 2030 1984 1933 2038 2030 1978 2021 1977 1990 1970 1917 1963 1860 1878 1844 1687 1820 1708 1661 1604 1578 1524 1481 1401 1407 1277 1332 1217 1139 1084 1057 1057 936 911 873 849 770 796 707 631 604 632 574 550 554 493 480 457 389 415 396 379 348 361 346 329 302 316 329 275 296 278 318 290 273 318 271 271 267 270 259 258 257 226 236 258 266 237 244 225 234 250 213 206 203 243 204 214 195 204 215 223 232 190 223 204 208 214 194 200 196 198 177 180 180 192 186 190 190 196 192 196 190 175 151 208 173 196 182 181 169 200 186 160 178 169 179 152 176 178 176 156 140 178 178 176 185 160 153 132 165 162 181 137 159 176 169 138 168 160 138 168 128 157 137 153 164 162 167 162 147 144 156 140 151 185 165 150 159 171 144 164 176 138 149 169 153 142 168 149 153 152 131 142 161 164 144 155 159 173 142 140 162 132 153 130 153 168 170 146 137 142 150 154 180 136 164 150 145 151 138 164 144 150 149 158 150 148 135 150 139 130 148 144 143 155 142 135 143 136 157 133 133 151 146 151 144 145 136 129 144 146 153 148 139 157 184 146 171 162 165 155 169 192 169 167 200 195 138 168 185 181 204 196 192 215 214 212 210 193 226 208 213 244 227 261 244 245 259 297 271 263 321 307 303 301 315 270 324 329 356 325 315 308 304 356 350 323 328 305 367 298 358 349 291 293 294 263 306 298 257 274 269 251 247 228 236 195 214 205 211 200 186 182 201 213 176 208 173 186 179 188 178 178 190 181 173 187 154 163 195 192 166 175 179 174 165 149 183 162 180 183 181 185 179 207 198 196 175 190 209 191 222 179 232 223 240 243 270 235 249 260 289 289 318 284 366 341 351 404 413 485 508 561 571 621 656 701 705 800 816 831 884 901 921 894 862 903 854 849 859 826 800 747 780 716 723 727 744 673 640 622 551 566 519 493 478 453 393 397 354 352 325 300 272 277 309 264 234 235 226 219 194 201 185 220 188 212 211 179 182 157 165 178 143 151 160 161 157 161 157 163 150 146 168 165 160 151 147 146 165 142 159 159 137 163 148 141 141 126 141 141 158 145 141 159 140 138 143 149 142 142 129 170 157 155 132 154 163 148 153 141 147 143 144 154 157 159 135 134 137 134 146 117 146 163 133 149 129 148 128 148 122 133 147 146 132 124 126 148 143 169 144 139 128 128 136 129 146 141 146 138 158 126 141 124 124 132 130 128 131 130 129 143 159 122 131 141 123 147 130 138 138 139 129 144 179 129 158 158 165 153 155 138 135 132 172 138 158 152 150 143 184 159 147 186 175 152 157 188 170 185 186 177 175 193 190 177 197 212 196 191 210 206 240 228 239 233 197 223 283 277 271 280 248 287 299 299 328 329 340 333 393 405 369 416 403 373 393 408 410 417 413 458 422 414 411 445 436 405 410 374 399 390 413 387 361 344 377 389 355 353 307 313 308 292 270 265 276 280 232 260 270 230 211 222 225 206 239 207 198 195 183 192 177 188 178 172 174 147 162 166 149 138 131 146 142 140 160 173 150 171 143 150 185 152 135 154 153 139 120 136 147 128 162 152 142 138 157 143 131 138 172 144 141 130 139 127 109 145 131 139 132 139 124 120 133 157 151 147 104 132 112 147 135 132 130 136 138 118 111 123 137 135 123 142 133 126 112 135 129 127 147 137 116 132 138 143 129 149 138 134 136 157 124 136 138 125 138 136 116 137 127 122 128 127 139 146 122 122 115 148 120 123 146 128 132 127 131 146 144 137 132 113 128 133 143 127 146 118 159 125 139 133 153 125 145 135 148 138 153 147 143 154 154 136 145 179 176 185 153 151 155 164 158 152 171 159 159 177 143 159 171 174 177 170 197 176 194 175 204 231 218 222 220 263 257 269 230 244 261 277 274 307 309 331 363 371 371 432 403 435 478 437 517 529 552 604 651 695 676 705 818 814 865 831 897 973 937 1007 1000 1040 1056 1085 1089 1072 1087 1077 1004 1021 1015 1008 967 977 944 915 891 856 852 801 814 751 746 674 674 611 592 558 593 547 501 511 482 471 399 384 383 335 321 330 337 291 274 318 266 278 261 270 228 257 239 229 243 230 201 208 194 187 193 181 201 185 166 170 185 167 176 169 180 156 166 168 169 185 163 143 158 167 165 138 154 167 157 154 143 153 141 163 152 137 162 155 156 159 155 155 106 138 134 142 138 142 140 144 155 150 150 149 159 145 170 146 114 145 131 150 160 143 146 134 158 132 157 160 132 159 164 132 154 158 150 148 133 133 134 139 165 148 150 147 141 155 147 149 146 165 158 127 126 141 143 137 137 149 135 122 146 156 143 161 115 139 139 116 131 124 139 139 138 130 139 146 135 139 152 130 129 135 124 138 167 139 126 156 151 159 155 141 147 128 123 127 141 112 135 123 170 101 139 145 154 126 153 143 131 151 141 138 154 168 132 156 125 148 149 143 139 132 175 139 153 170 156 157 164 154 166 157 191 204 180 180 185 186 188 202 205 199 222 231 219 200 228 236 245 243 249 256 275 302 346 321 350 338 376 365 351 367 416 418 421 444 457 434 435 470 499 505 482 474 508 468 499 554 495 488 477 483 453 459 465 486 443 440 493 437 401 418 394 397 377 380 369 378 357 382 326 329 330 304 325 309 286 286 306 300 276 315 274 276 260 274 257 266 271 235 266 266 239 261 259 233 283 288 261 249 269 240 263 240 285 230 239 299 256 266 294 282 292 311 328 344 346 336 387 411 431 456 464 484 501 553 551 620 638 676 754 820 814 875 1014 1016 1091 1116 1311 1308 1518 1535 1569 1603 1697 1707 1695 1795 1717 1782 1723 1776 1695 1741 1646 1644 1674 1620 1528 1518 1545 1453 1405 1342 1289 1351 1227 1222 1131 1075 1002 971 843 846 857 763 727 663 612 588 521 524 444 487 452 432 375 398 389 325 342 337 310 328 274 295 263 243 275 241 226 212 259 232 209 217 228 207 216 191 211 170 210 181 199 182 201 195 187 187 168 176 171 186 165 172 166 153 185 176 157 151 200 165 166 149 152 148 168 164 161 153 152 148 156 149 141 136 132 145 152 170 122 141 152 151 142 139 129 136 142 140 142 124 136 121 125 148 137 151 136 119 137 137 148 144 132 144 158 127 138 145 130 111 136 146 148 134 147 140 131 142 116 129 145 144 131 144 137 147 132 147 151 136 160 142 135 132 149 143 111 124 155 166 164 123 165 155 154 152 160 163 146 145 142 158 151 167 150 133 177 173 160 155 198 174 180 179 173 148 155 192 156 180 168 177 167 158 171 145 169 144 165 175 187 161 160 149 160 151 187 142 164 146 159 139 174 147 145 157 143 135 116 134 134 140 130 144 140 145 135 119 152 141 144 137 107 138 121 120 122 117 134 134 120 125 131 145 132 133 141 102 121 112 133 158 138 113 119 137 123 142 123 138 132 129 125 137 137 122 123 124 122 128 132 145 123 134 109 133 116 106 130 112 112 114 133 122 133 107 120 102 116 132 152 118 145 127 137 134 122 119 119 116 108 143 135 117 129 136 108 127 134 110 134 145 123 120 118 119 120 99 117 124 137 129 111 115 127 120 111 136 119 109 130 113 100 122 129 117 114 114 118 103 153 108 114 137 136 134 105 113 140 127 128 106 124 142 124 117 123 122 108 119 128 124 121 133 123 116 121 127 126 117 122 103 124 128 110 119 130 135 117 130 125 110 142 138 124 106 114 155 131 138 111 125 132 130 131 141 137 134 135 148 138 133 152 136 136 133 135 137 159 153 125 136 141 147 150 173 157 148 175 148 164 151 156 160 148 180 174 145 164 147 162 149 152 151 150 126 134 140 162 137 140 136 138 155 125 151 139 138 133 135 135 149 133 135 144 139 120 130 137 110 131 137 117 130 124 116 134 142 131 132 127 117 121 119 123 136 118 112 123 126 132 114 118 123 113 113 131 124 146 127 124 156 112 116 132 139 136 122 138 132 126 144 121 121 121 111 129 131 137 124 118 134 120 120 121 144 107 131 118 114 128 123 138 128 138 111 139 120 121 133 115 121 129 142 131 123 126 135 126 153 129 129 118 116 137 142 106 120 116 139 117 104 122 109 144 127 128 137 130 130 131 120 138 113 134 111 129 129 112 131 132 133 128 122 129 133 141 151 136 135 127 128 150 140 118 131 124 122 121 143 115 135 113 177 132 128 151 128 123 150 134 145 136 152 153 142 156 143 144 156 136 146 150 136 157 169 149 162 154 148 120 152 116 162 139 152 136 111 150 143 147 136 147 131 123 143 131 122 121 142 153 120 147 145 129 147 153 128 134 154 142 110 129 136 159 150 146 146 139 118 142 146 132 137 122 132 142 144 132 145 143 137 150 135 137 129 139 152 139 149 155 150 135 152 183 169 170 183 151 188 174 166 157 162 155 176 194 157 184 163 174 213 195 216 185 196 194 163 223 189 191 189 222 229 187 209 191 212 223 185 216 215 201 242 185 197 188 210 205 210 208 167 196 202 208 208 197 217 195 182 219 174 196 198 202 183 213 207 211 181 169 161 188 182 207 196 180 187 191 173 189 165 158 176 178 164 184 159 148 186 169 178 161 166 159 148 148 181 157 142 147 175 166 155 160 163 153 159 140 172 166 163 164 145 151 151 154 142 164 143 147 147 138 129 160 128 153 138 147 144 125 126 140 129 150 135 143 166 131 169 128 134 139 161 143 134 157 161 140 136 145 159 155 151 152 148 146 129 150 160 129 137 143 152 151 171 143 149 148 176 141 144 163 157 147 132 149 152 149 156 147 153 139 130 144 156 160 137 145 163 172 151 183 159 179 161 171 169 168 144 150 170 136 142 183 172 134 178 168 183 168 162 171 176 172 172 167 193 193 191 178 193 232 222 202 225 226 216 215 233 234 235 210 231 225 235 229 232 246 232 200 221 236 258 237 227 272 224 244 247 248 268 233 247 261 259 250 238 218 234 258 229 234 195 213 214 223 204 211 194 177 199 201 198 204 189 180 161 182 186 151 180 162 190 164 144 187 172 148 148 139 148 145 149 129 181 134 155 136 153 149 150 140 142 162 134 152 140 150 154 146 146 124 140 151 155 134 121 128 135 132 131 134 132 118 89 143 111 119 116 136 125 127 139 116 130 135 132 117 109 123 135 115 118 112 114 137 114 155 127 134 124 113 107 133 131 116 110 128 129 120 120 139 137 110 128 138 113 134 121 95 120 124 123 113 108 101 117 121 107 155 123 108 130 129 118 143 115 118 116 128 128 129 142 102 122 130 129 116 119 126 117 128 114 138 115 125 110 119 102 134 147 129 120 120 119 105 104 110 146 126 125 111 116 137 144 108 111 123 138 148 148 116 127 119 129 131 127 150 118 125 116 122 126 132 125 143 104 130 141 118 149 135 113 156 131 119 129 139 109 148 130 140 141 133 133 129 148 115 126 135 135 150 127 131 118 126 129 117 130 127 113 132 127 122 125 147 128 126 127 131 113 127 117 130 118 141 118 119 109 123 119 132 154 119 100 120 144 142 109 105 135 124 138 120 111 134 105 133 135 115 108 116 108 133 98 142 115 96 132 119 114 127 113 132 132 122 130 116 117 118 125 99 122 109 118 120 132 145 108 113 135 110 136 121 121 113 124 106 130 124 134 130 124 107 119 119 126 133 117 101 98 147 119 124 125 121 116 126 105 135 119 126 121 137 128 126 117 129 140 137 117 118 136 129 114 110 117 131 119 122 112 141 125 119 112 126 125 123 102 137 132 135 115 119 123 131 126 134 129 128 138 114 127 137 135 128 138 116 120 143 136 127 127 134 149 127 118 154 129 127 139 138 148 134 162 135 143 131 132 144 132 150 143 146 142 142 143 165 174 133 150 154 148 159 182 145 153 159 150 160 174 200 182 177 205 190 200 223 226 220 213 207 233 281 235 245 282 272 305 340 327 345 371 359 383 435 455 483 506 565 560 544 606 617 638 644 698 724 736 721 737 808 731 785 711 740 820 696 747 734 719 681 646 674 692 690 677 695 623 662 592 612 606 568 583 520 542 490 508 480 475 410 403 389 380 389 351 325 311 319 280 311 297 288 265 293 274 232 239 210 231 199 208 203 217 188 167 200 181 203 171 164 175 187 155 170 158 162 147 163 172 177 150 138 140 168 148 154 149 147 140 129 156 141 145 160 121 145 149 155 143 151 157 131 136 134 143 163 140 136 128 136 149 132 155 138 116 142 143 146 156 146 150 153 142 142 151 154 150 140 158 144 159 152 147 171 176 159 169 188 178 184 153 170 173 188 197 181 204 178 200 203 179 215 171 180 192 201 186 200 205 232 217 250 185 204 209 218 224 218 205 215 230 211 207 224 237 236 218 243 189 223 211 213 265 241 217 237 222 230 245 243 237 266 206 261 267 258 249 242 283 235 272 240 230 247 260 240 265 284 297 293 222 299 271 293 266 321 273 265 286 282 304 303 319 292 336 304 282 339 300 296 243 275 346 309 262 295 309 301 280 308 304 306 278 281 276 271 287 245 302 242 265 262 239 247 289 259 249 243 224 213 222 237 227 222 207 214 209 220 214 212 194 190 194 187 188 150 192 156 190 169 163 184 179 187 150 172 157 177 137 155 127 162 154 161 152 148 149 123 136 140 145 140 146 140 124 141 168 130 138 143 134 123 145 154 132 139 100 116 111 141 121 120 154 106 131 120 123 127 130 136 142 102 119 120 116 138 115 132 107 111 136 135 139 113 95 137 120 111 123 137 109 110 134 110 120 125 122 129 119 83 125 121 111 126 115 126 126 128 100 145 107 113 128 104 107 105 111 121 117 127 129 108 110 98 130 116 131 123 113 129 108 111 141 137 108 103 128 134 107 105 120 139 121 120 100 115 128 137 109 119 133 114 103 102 108 131 115 107 124 125 119 117 119 109 122 124 116 124 112 148 98 105 123 123 101 120 113 140 117 90 136 128 128 116 142 132 137 124 114 122 116 116 104 122 102 134 106 112 114 146 116 123 113 116 121 109 136 138 120 129 100 130 116 108 113 113 115 113 117 111 115 112 115 115 104 114 108 115 145 122 108 137 119 118 128 119 103 129 133 123 117 122 99 99 114 122 124 118 112 108 101 111 130 118 104 106 122 109 98 109 128 117 117 142 106 101 119 134 107 113 125 101 146 129 128 112 115 119 137 119 110 113 132 118 122 93 109 118 110 99 113 135 119 121 113 120 122 126 133 116 109 114 108 139 110 133 110 114 135 123 129 126 126 128 118 109 120 113 125 116 139 133 122 119 126 123 128 121 129 141 111 134 130 115 121 114 106 135 124 121 111 120 145 117 120 118 139 119 141 112 115 129 144 121 146 125 132 100 133 104 118 130 100 111 114 112 122 138 135 126 130 116 138 118 137 135 112 139 108 127 123 139 126 124 149 116 140 141 128 136 139 135 106 148 133 138 148 150 145 161 124 145 159 119 123 147 132 124 136 106 151 129 162 147 162 128 149 142 150 146 153 142 163 157 139 156 122 174 142 160 164 143 163 194 156 157 159 156 186 146 196 163 186 157 165 174 178 170 204 202 205 183 233 192 227 227 226 230 244 232 238 260 238 268 266 258 321 307 347 324 318 360 366 324 379 437 471 470 469 462 530 569 594 632 653 717 712 771 874 852 942 947 1025 1047 1138 1118 1206 1251 1161 1252 1264 1244 1261 1329 1351 1401 1313 1348 1370 1342 1369 1316 1256 1310 1273 1271 1295 1247 1262 1339 1227 1266 1216 1188 1109 1187 1137 1192 1141 1043 1004 1035 1014 949 1004 954 828 881 825 787 744 734 747 696 649 666 644 565 610 587 530 522 517 507 514 442 462 418 394 432 385 367 365 348 356 355 365 312 320 315 309 273 305 268 256 245 267 278 262 256 246 222 267 220 216 227 209 217 197 192 210 204 213 212 219 212 196 215 207 192 205 202 189 203 186 218 203 188 183 210 207 176 174 191 199 177 180 183 204 189 211 193 192 177 174 214 198 180 195 192 182 174 215 184 192 216 185 195 195 188 183 208 202 187 174 233 176 205 184 188 179 178 196 170 189 154 183 185 188 156 191 166 157 172 171 176 171 176 165 161 146 158 154 152 143 165 149 163 165 136 159 161 152 146 152 145 156 147 155 138 140 144 116 133 128 148 127 132 173 110 121 132 153 128 125 139 121 155 127 152 169 148 129 144 160 138 122 131 124 106 136 116 144 148 123 131 131 110 138 137 153 118 137 134 162 135 143 156 137 129 159 121 127 125 118 140 146 137 142 150 131 114 118 134 138 142 134 121 169 130 134 121 137 125 117 128 138 129 140 135 139 115 134 111 122 143 151 122 139 144 133 120 120 129 112 116 138 131 150 132 130 136 139 119 118 120 127 137 113 140 148 123 139 141 152 124 133 138 141 144 137 134 121 121 137 136 162 141 131 128 137 129 142 152 144 131 153 156 141 130 149 158 172 172 152 175 168 169 170 149 172 170 178 161 152 142 155 153 150 165 172 187 151 147 146 145 150 169 153 164 142 155 179 138 129 162 157 165 129 149 122 129 142 160 133 146 124 153 137 140 138 164 134 159 138 128 148 140 146 142 126 150 137 131 143 149 131 153 128 139 139 148 174 132 160 132 143 135 177 149 143 139 135 131 142 143 138 159 144 163 123 161 153 153 160 150 133 149 155 152 179 159 168 155 155 194 166 146 189 172 166 168 168 184 192 179 185 189 203 227 214 193 220 215 193 206 218 264 260 244 241 257 293 270 283 321 304 305 333 351 322 361 382 351 365 396 410 391 401 457 453 536 463 482 497 512 487 531 503 556 553 559 568 570 565 566 602 574 555 575 582 537 599 514 585 496 529 602 511 553 545 532 546 530 514 479 497 460 472 471 459 443 448 464 424 443 355 409 428 398 349 382 361 329 349 352 352 362 296 310 308 290 280 302 307 315 293 305 262 263 300 276 267 271 278 265 223 276 260 280 267 271 243 262 265 273 239 227 262 226 238 256 247 230 246 225 239 260 287 274 239 237 275 270 283 246 240 246 205 246 241 225 245 231 237 220 221 218 208 197 198 223 197 209 182 206 192 195 213 183 214 196 190 201 178 198 191 185 202 182 181 181 180 175 178 185 179 141 153 161 144 160 137 169 151 148 160 136 152 145 161 145 128 139 157 122 125 150 144 141 151 124 121 135 125 146 129 136 136 131 135 145 141 147 137 131 123 134 131 116 140 130 127 124 141 112 117 112 134 136 121 123 134 127 141 130 119 144 119 133 116 123 156 138 114 125 134 124 143 136 132 137 129 121 132 120 105 126 107 118 124 127 131 139 127 125 114 112 128 108 117 126 135 116 132 122 117 109 115 119 116 124 122 100 112 112 130 111 113 112 121 126 132 120 106 118 138 132 143 122 122 137 125 123 124 103 121 104 112 119 118 138 124 123 114 124 146 118 135 126 152 117 136 117 117 127 117 110 121 112 97 128 128 136 130 115 128 131 124 130 121 133 138 118 94 126 136 111 97 120 114 137 116 127 109 122 134 116 120 107 112 121 132 138 139 111 135 113 141 127 114 112 122 114 118 151 127 116 130 129 110 122 126 138 138 123 145 138 129 142 115 153 140 146 138 126 148 105 131 126 116 153 120 140 137 148 125 136 150 151 145 159 148 134 135 129 139 133 141 154 142 146 154 127 145 156 155 143 153 161 154 158 156 149 171 160 162 134 145 158 155 150 154 169 153 153 170 153 150 184 171 176 164 157 189 180 179 200 167 176 201 211 192 185 189 216 212 192 183 181 188 203 188 180 190 193 192 200 220 205 214 179 234 217 206 203 207 216 191 197 219 193 201 215 206 215 206 209 195 165 206 186 176 191 211 208 205 211 181 199 164 176 206 187 188 160 188 187 191 175 181 183 177 152 174 174 163 179 140 152 143 171 152 163 155 153 169 165 139 152 155 130 173 151 121 154 121 162 142 145 147 147 124 169 122 151 116 138 159 154 152 128 144 125 133 141 121 138 128 131 145 148 152 154 130 146 142 170 138 140 149 154 141 167 145 151 151 145 158 155 158 179 180 151 160 177 176 169 171 201 194 199 198 226 187 215 222 218 221 248 230 261 273 275 237 292 283 279 262 287 272 282 278 294 300 311 297 298 328 303 324 290 324 316 330 331 330 353 374 317 322 311 333 345 316 332 319 353 344 317 323 337 318 304 284 265 289 272 301 279 319 271 283 254 231 280 241 287 235 262 229 256 234 220 220 216 227 204 211 204 204 181 207 187 185 188 172 173 182 160 163 181 176 140 159 169 170 143 137 155 146 141 145 144 137 145 163 149 137 134 114 155 133 147 154 128 146 129 156 144 136 135 137 122 138 167 130 145 137 117 141 134 115 130 119 130 128 136 132 132 146 135 151 144 148 139 149 136 159 136 132 144 135 156 149 147 168 147 140 113 132 124 137 143 145 132 144 141 130 156 151 146 137 156 130 153 170 169 168 165 167 149 146 166 164 164 153 154 151 149 148 171 131 171 172 150 169 149 155 144 162 155 152 188 171 128 143 175 159 172 176 166 147 156 137 151 155 155 162 151 156 140 141 168 170 155 135 165 159 158 132 159 129 126 143 115 155 149 149 137 153 170 159 185 165 160 160 153 160 149 147 132 163 146 171 152 136 155 155 152 162 169 170 154 163 178 168 200 152 179 188 163 170 180 190 174 190 195 187 179 166 183 190 191 259 193 218 221 206 225 217 257 234 275 257 243 276 287 276 304 336 352 344 358 363 380 435 419 446 469 465 475 508 523 525 557 552 512 574 550 581 595 584 619 585 575 601 607 570 579 588 577 550 535 542 513 543 511 519 464 502 495 539 493 446 464 465 483 479 486 458 429 423 438 437 399 391 394 362 386 394 363 341 332 316 281 284 269 289 275 244 263 244 248 233 234 217 196 191 216 217 194 206 199 193 175 181 191 192 163 178 157 185 171 186 163 174 155 171 158 157 146 155 147 151 170 146 164 157 174 126 138 135 154 152 176 135 159 141 152 131 155 164 174 159 157 170 149 133 125 139 174 168 136 143 163 151 149 156 162 143 142 156 176 146 143 143 158 136 159 145 132 141 134 155 156 150 159 134 141 152 144 144 116 145 142 128 133 143 154 116 135 125 148 136 123 132 123 134 136 150 165 133 123 144 157 140 175 130 146 146 140 129 166 142 147 110 124 146 132 146 132 135 154 116 135 136 158 146 127 157 139 134 156 125 142 156 124 141 147 151 127 147 161 170 161 162 150 149 156 160 175 172 149 175 174 176 180 179 165 168 184 179 219 214 183 210 217 262 220 241 260 285 309 323 334 338 333 357 411 383 430 493 476 545 540 622 615 623 668 688 721 750 835 770 782 840 789 855 849 807 788 801 797 799 765 758 731 722 725 657 695 639 675 652 661 601 596 623 657 631 581 624 646 586 625 628 621 583 532 549 535 534 490 486 496 487 443 428 393 416 402 379 343 343 348 294 268 310 286 270 260 234 220 226 210 228 186 197 184 218 192 191 177 196 172 173 169 185 164 162 164 156 168 144 154 138 159 136 156 121 162 151 151 167 152 150 150 141 151 139 135 139 147 140 134 149 122 128 125 134 125 128 130 163 129 126 124 135 136 125 138 141 134 114 125 124 107 124 128 134 124 130 141 140 141 104 131 146 127 113 143 115 137 133 127 125 124 117 125 115 127 137 130 110 128 118 99 124 101 135 97 135 128 136 120 134 125 108 111 121 132 130 141 125 118 127 126 140 127 107 132 126 120 132 147 128 131 132 150 112 126 116 113 122 119 129 127 123 125 116 123 121 124 148 143 146 157 120 139 137 115 131 152 143 139 150 154 137 141 153 158 158 178 156 154 140 147 162 145 153 144 145 157 183 162 161 146 163 174 163 145 177 175 163 176 166 158 163 197 188 151 174 174 174 180 175 167 157 190 159 188 158 166 164 173 179 180 184 155 156 162 160 151 171 161 160 161 147 168 161 142 154 141 158 130 134 156 152 150 145 143 158 161 158 138 144 171 159 153 135 129 136 151 133 146 168 114 155 136 180 134 163 164 135 146 154 145 160 117 132 147 162 138 135 181 176 162 153 145 152 152 157 156 171 169 168 161 169 179 169 160 170 177 161 180 183 177 192 211 184 216 193 212 211 191 209 218 250 198 241 235 241 272 242 277 230 231 258 242 261 246 248 273 283 280 242 244 265 283 269 275 293 257 272 272 273 295 240 257 269 260 267 279 275 267 285 267 257 249 240 240 240 262 258 237 267 237 265 240 233 233 246 242 245 233 258 276 244 248 248 249 225 220 247 213 260 245 214 245 242 235 245 247 223 235 235 221 237 193 188 216 216 240 226 216 249 220 208 222 186 230 175 208 219 209 213 196 180 199 202 186 185 216 169 168 211 169 180 194 161 187 159 202 159 145 167 169 174 160 173 163 182 170 160 168 177 137 171 147 155 156 160 175 130 157 144 143 146 155 162 153 161 163 154 167 140 130 131 152 141 156 158 151 146 134 145 129 138 154 151 147 151 153 142 143 154 139 141 127 140 152 148 148 144 139 131 121 117 153 127 142 133 128 139 149 162 131 154 120 137 133 141 126 145 141 145 144 132 136 141 146 142 129 116 118 128 131 144 147 147 142 144 142 146 138 126 128 165 160 141 132 149 144 158 134 134 133 139 149 137 128 125 128 138 135 129 133 137 114 120 135 142 119 114 146 130 152 137 139 127 133 116 120 113 104 148 127 136 126 114 102 133 122 126 127 138 124 141 126 120 102 124 140 131 119 118 129 131 132 125 105 137 111 127 124 113 119 110 133 139 110 123 109 125 135 136 126 130 127 129 122 122 128 111 121 125 128 119 104 123 125 114 112 106 130 109 116 113 122 124 119 140 110 106 113 120 136 141 123 122 154 128 110 116 131 98 113 112 134 136 115 125 116 122 106 121 108 126 111 127 98 99 123 105 119 127 125 112 114 126 105 134 125 141 134 124 105 102 103 111 116 136 114 109 112 120 140 105 117 104 115 97 116 116 128 97 105 112 95 121 118 109 114 116 132 104 113 112 126 135 121 112 94 111 122 123 127 92 100 119 106 127 107 117 116 99 120 111 92 106 112 87 99 110 112 112 113 125 104 100 119 119 132 110 115 122 110 113 115 115 120 115 119 108 116 119 120 113 124 124 134 122 116 110 116 100 123 121 95 119 124 125 104 109 98 136 97 118 107 124 126 122 117 102 98 141 127 115 112 104 117 121 120 117 120 112 112 142 108 114 116 119 116 118 124 123 116 130 129 124 104 137 140 125 138 123 117 124 136 133 116 127 113 128 120 121 122 141 134 126 135 125 159 125 136 120 146 144 143 159 130 161 143 146 173 140 159 166 151 157 164 161 186 174 131 139 179 160 193 172 160 159 184 178 193 199 163 208 199 217 179 186 203 216 213 231 243 199 224 238 213 240 227 231 257 221 275 248 264 271 247 268 240 242 282 245 287 238 276 246 260 243 268 238 244 275 269 268 245 269 271 284 238 228 266 195 272 275 280 284 243 314 261 273 237 235 228 252 273 247 282 280 283 274 267 231 244 266 235 270 214 236 222 272 220 219 214 223 193 240 237 261 211 226 193 237 213 214 231 222 208 211 213 235 201 213 215 236 236 225 197 215 201 197 212 225 219 214 225 209 226 207 194 203 208 222 228 208 223 211 250 228 226 205 191 260 189 207 195 216 203 221 223 213 226 229 214 237 246 217 242 192 227 216 232 247 240 217 241 224 211 224 200 232 211 230 228 222 238 224 217 220 211 218 235 198 206 218 220 214 222 221 213 235 209 205 195 188 209 191 195 203 181 190 176 192 202 197 193 159 181 182 156 189 184 170 196 207 186 176 167 197 177 185 161 173 184 183 174 173 166 148 162 145 139 154 171 154 165 141 159 150 145 149 138 160 160 149 157 146 116 160 154 135 135 140 150 119 161 144 138 129 139 140 147 126 124 109 131 138 150 146 157 120 136 126 122 121 117 142 115 130 121 117 119 138 123 103 115 137 146 134 113 127 122 108 108 116 103 110 113 127 110 135 146 139 113 143 135 126 138 137 135 124 111</intensities>
			</dataPoints>
		</scan>
	</xrdMeasurement>
</xrdMeasurements>
