<?xml version="1.0" encoding="UTF-8"?>
<xrdMeasurements xmlns="http://www.xrdml.com/XRDMeasurement/1.7" xmlns:xsi="http://www.w3.org/2001/XMLSchema-instance" xsi:schemaLocation="http://www.xrdml.com/XRDMeasurement/1.7 http://www.xrdml.com/XRDMeasurement/1.7/XRDMeasurement.xsd" status="Completed">
	<comment>
		<entry>Configuration=Conf. Reflection-transmission spinner, Owner=User-1, Creation date=2/28/2018 8:43:02 AM</entry>
		<entry>Goniometer=Theta/Theta; Minimum step size 2Theta:0.0001; Minimum step size Omega:0.0001</entry>
		<entry>Sample stage=Reflection-transmission spinner; Minimum step size Phi:0.1</entry>
		<entry>Diffractometer system=EMPYREAN</entry>
		<entry>Measurement program=C:\PANalytical\Data Collector\Programs\sample-1.xrdmp, Identifier={BB6687EE-8248-4E06-B0C7-67735DEB5D7E}</entry>
		<entry>Batch program=C:\PANalytical\Data Collector\Programs\P3.xrdmp, Identifier={110013A4-273B-4C82-A4D1-871885B7687B}</entry>
	</comment>
	<sample type="To be analyzed">
		<id></id>
		<name></name>
		<preparedBy></preparedBy>
	</sample>
	<xrdMeasurement measurementType="Scan" status="Completed" sampleMode="Reflection">
		<comment>
			<entry>PHD Lower Level = 4.02 (keV), PHD Upper Level = 11.27 (keV)</entry>
		</comment>
		<usedWavelength intended="K-Alpha 1">
			<kAlpha1 unit="Angstrom">1.5405980</kAlpha1>
			<kAlpha2 unit="Angstrom">1.5444260</kAlpha2>
			<kBeta unit="Angstrom">1.3922500</kBeta>
			<ratioKAlpha2KAlpha1>0.5000</ratioKAlpha2KAlpha1>
		</usedWavelength>
		<incidentBeamPath>
			<radius unit="mm">240.00</radius>
			<xRayTube id="1010048" name="Empyrean Cu LFF HR (9430 033 7310x) DK427586">
				<tension unit="kV">40.0</tension>
				<current unit="mA">40.0</current>
				<anodeMaterial>Cu</anodeMaterial>
				<focus type="Line">
					<length unit="mm">12.0</length>
					<width unit="mm">0.4</width>
					<takeOffAngle unit="deg">4.4</takeOffAngle>
				</focus>
			</xRayTube>
			<xRayMirror id="27020009" name="Bragg-Brentano HD" hybrid="false">
				<crystal type="Graded" shape="Flat">BB/HD</crystal>
				<acceptanceAngle unit="deg">0.800</acceptanceAngle>
				<length unit="mm">55.3</length>
			</xRayMirror>
			<sollerSlit id="21010002" name="Soller slits 0.04 rad.">
				<opening unit="rad">0.0400</opening>
			</sollerSlit>
			<mask id="22030009" name="Fixed mask 10 mm">
				<width unit="mm">10.00</width>
			</mask>
			<antiScatterSlit id="22010003" name="Fixed slit 1°" xsi:type="fixedAntiScatterSlitType">
				<height unit="mm">1.52</height>
			</antiScatterSlit>
			<divergenceSlit id="22010005" name="Fixed slit 1/4°" xsi:type="fixedDivergenceSlitType">
				<distanceToSample unit="mm">140.00</distanceToSample>
				<height unit="mm">0.38</height>
			</divergenceSlit>
		</incidentBeamPath>
		<diffractedBeamPath>
			<radius unit="mm">240.00</radius>
			<antiScatterSlit id="22090010" name="AS slit 8.0 mm (PIXcel)" xsi:type="fixedAntiScatterSlitType">
				<height unit="mm">8.00</height>
			</antiScatterSlit>
			<sollerSlit id="21020003" name="Large Soller slits 0.04 rad.">
				<opening unit="rad">0.0400</opening>
			</sollerSlit>
			<detector id="7010019" name="PIXcel1D-Medipix3 detector" xsi:type="rtmsDetectorType">
				<phd unit="%">
					<lowerLevel>25.0</lowerLevel>
					<upperLevel>70.0</upperLevel>
				</phd>
				<mode>Scanning</mode>
				<activeLength unit="deg">3.3482</activeLength>
			</detector>
		</diffractedBeamPath>
		<scan appendNumber="0" mode="Continuous" scanAxis="Gonio" status="Completed">
			<header>
				<startTimeStamp>2025-12-28T17:59:42+08:00</startTimeStamp>
				<endTimeStamp>2025-12-28T18:11:14+08:00</endTimeStamp>
				<author>
					<name>User</name>
				</author>
				<source>
					<applicationSoftware version="5.5a">Data Collector</applicationSoftware>
					<instrumentControlSoftware version="7.9j 20171025">EMPYREAN</instrumentControlSoftware>
					<instrumentID>0000000011214615</instrumentID>
				</source>
			</header>
			<dataPoints>
				<positions axis="2Theta" unit="deg">
					<startPosition>6.00558257</startPosition>
					<endPosition>75.99655438</endPosition>
				</positions>
				<positions axis="Omega" unit="deg">
					<startPosition>3.00279129</startPosition>
					<endPosition>37.99827719</endPosition>
				</positions>
				<positions axis="Phi" unit="deg">
					<commonPosition>0.0</commonPosition>
				</positions>
				<commonCountingTime unit="seconds">13.770</commonCountingTime>
				<intensities unit="counts">472 439 470 462 438 466 490 449 473 418 449 484 478 491 455 487 457 423 462 470 446 452 484 437 453 490 407 427 456 444 473 433 432 438 507 470 453 430 476 445 468 436 452 449 450 416 475 403 424 471 481 444 473 459 452 495 479 419 445 457 458 476 408 477 449 442 475 455 438 437 427 441 440 445 440 501 429 426 457 428 469 445 472 465 454 469 448 461 449 452 443 441 473 437 443 473 444 437 450 445 444 431 437 451 435 443 421 405 434 418 448 433 441 443 448 463 431 456 461 448 452 404 436 405 475 452 408 416 395 447 419 436 457 449 458 440 434 433 403 466 451 466 431 406 415 477 451 462 457 433 436 456 402 455 452 437 460 409 422 423 444 418 457 438 463 419 456 447 442 441 437 449 443 432 409 447 449 431 443 437 421 453 470 418 455 413 408 418 442 456 420 448 434 449 460 462 404 460 422 424 428 440 466 405 464 476 439 446 448 417 453 421 440 420 444 460 440 417 449 432 408 399 457 445 455 427 467 426 460 430 404 444 447 425 479 422 433 436 437 411 479 429 419 454 398 456 451 442 478 462 426 466 397 435 433 426 442 451 412 440 439 395 442 462 432 453 444 426 440 468 397 444 443 415 408 435 424 427 426 414 436 415 397 469 444 425 464 424 434 436 430 400 427 427 446 444 428 465 444 422 436 445 463 420 443 415 433 437 435 455 427 460 432 419 410 425 406 389 387 443 409 395 432 414 429 408 399 360 380 403 418 402 390 466 409 415 414 424 391 455 427 432 457 385 394 399 435 428 400 411 416 405 417 407 466 437 458 440 420 385 451 411 412 442 391 453 433 419 440 406 417 444 435 424 415 411 409 402 408 376 383 407 393 407 395 428 409 437 395 390 406 416 376 406 402 423 432 417 441 414 394 379 397 451 412 417 411 429 397 399 437 391 415 408 388 393 412 416 397 404 431 409 405 411 383 419 406 398 422 430 447 411 418 409 370 397 406 437 462 372 420 392 402 349 379 402 406 429 396 445 424 376 394 412 402 382 408 416 396 386 411 375 406 401 386 393 387 397 426 379 395 409 405 401 394 411 409 434 417 437 412 415 392 400 426 411 360 366 387 415 415 376 421 382 381 406 385 411 374 438 401 391 403 423 357 392 401 405 421 362 392 385 415 395 373 374 402 404 420 387 409 401 384 381 361 402 364 396 410 423 387 394 410 391 389 411 425 389 378 408 380 420 350 381 366 350 404 400 423 398 422 403 406 399 368 365 392 415 400 359 375 386 390 388 388 407 398 416 429 392 402 393 372 372 367 368 388 373 423 391 384 390 356 430 383 383 384 376 345 409 389 397 376 391 373 361 399 415 383 365 365 352 405 381 429 415 363 377 402 396 392 394 413 404 406 399 350 410 373 392 375 382 340 358 400 381 416 424 372 371 374 416 378 366 382 393 421 380 363 358 405 358 374 353 391 370 366 357 383 404 370 410 361 383 370 356 406 372 366 372 360 384 411 335 355 413 345 383 377 367 365 397 377 400 360 352 376 419 393 376 383 383 369 387 389 395 346 369 389 440 356 384 379 382 386 379 355 391 376 358 429 338 333 399 374 348 332 333 335 340 361 330 377 351 336 379 363 376 364 404 393 379 360 390 357 388 339 354 348 386 367 408 375 388 361 345 376 363 386 388 360 385 357 367 322 372 321 392 381 370 367 342 404 358 390 340 348 351 376 383 392 371 388 365 362 388 378 390 328 355 353 361 363 378 343 355 356 366 347 348 367 336 387 372 336 369 414 376 368 333 360 360 351 356 360 402 339 346 352 371 333 362 341 350 363 371 367 341 353 346 353 334 371 337 333 326 359 366 362 353 396 344 342 380 348 380 349 338 331 358 347 391 376 351 345 315 389 370 374 332 350 354 330 352 354 356 354 362 325 324 344 348 349 353 354 345 355 367 342 373 354 345 335 343 336 325 339 329 353 376 381 324 369 356 354 348 368 343 352 357 330 328 358 366 340 311 342 362 312 348 329 344 384 327 303 327 354 325 331 337 343 344 349 347 390 355 299 299 336 322 317 315 329 325 332 324 335 349 330 339 339 348 346 318 364 352 357 286 341 329 318 320 331 347 359 376 351 326 317 311 330 314 362 337 360 353 342 323 313 335 370 351 335 311 364 342 333 337 350 356 339 316 306 346 323 337 325 323 316 341 328 343 318 348 349 317 339 353 311 310 347 327 321 313 353 302 298 316 339 331 322 342 303 336 355 320 335 320 344 336 315 340 321 331 336 304 307 329 319 348 341 316 305 330 307 309 353 331 299 301 330 321 368 339 350 294 325 319 337 328 314 354 356 321 332 333 304 317 309 341 291 322 316 294 341 317 303 318 330 330 320 311 332 309 312 302 300 330 303 341 304 343 305 319 322 297 335 344 318 304 313 327 310 322 325 342 309 311 310 326 300 313 303 347 348 296 302 311 322 315 362 308 310 318 302 333 296 298 322 321 329 333 298 297 319 312 305 309 322 302 323 313 261 338 291 303 284 336 302 292 308 323 323 327 290 348 323 345 296 331 337 302 290 295 315 285 309 286 307 307 286 304 323 312 313 303 304 292 295 301 309 307 306 334 291 313 310 315 310 296 299 292 305 273 278 302 282 276 303 284 302 308 310 317 301 301 305 247 296 287 304 291 318 297 285 290 290 302 307 302 302 289 289 332 291 294 281 330 276 295 303 310 311 297 313 314 316 311 317 291 324 281 285 315 287 289 303 270 302 313 293 294 320 311 281 283 296 284 301 305 309 287 302 271 310 280 285 315 267 307 261 256 280 247 300 289 267 293 314 299 317 293 280 300 276 303 271 277 285 294 296 263 271 233 301 276 305 311 316 293 301 289 285 296 278 267 276 279 293 271 302 320 286 240 283 280 301 273 264 276 299 281 295 299 268 284 269 271 258 274 275 262 311 299 286 264 279 265 264 261 293 286 290 249 286 295 282 247 285 298 261 260 294 256 276 275 259 287 296 301 282 265 275 287 266 278 272 277 288 246 279 264 279 256 278 258 301 280 271 256 279 275 293 274 268 266 278 269 285 303 295 290 275 268 279 279 292 274 244 285 287 284 266 258 266 277 283 312 295 280 284 278 289 278 267 267 263 265 293 283 256 285 257 242 232 263 258 273 255 265 273 272 292 291 296 262 265 297 290 257 233 270 297 241 243 259 275 241 271 274 274 284 269 261 274 246 299 281 277 271 277 274 266 257 275 280 269 243 264 267 248 249 233 279 286 259 307 292 222 281 237 275 308 270 260 285 276 248 235 265 276 248 272 245 277 282 283 268 288 266 303 260 262 225 271 267 290 293 249 295 280 263 281 291 261 272 278 278 289 278 271 276 248 279 259 266 296 282 287 328 282 257 289 277 273 313 268 278 313 272 274 286 289 286 323 295 267 267 320 309 307 281 289 285 292 311 332 297 348 339 311 324 350 333 349 334 362 331 367 371 346 411 414 347 433 400 399 428 457 484 465 442 502 506 518 561 563 550 630 643 710 671 655 722 818 775 775 846 920 913 921 1036 1079 1103 1175 1292 1305 1322 1421 1416 1481 1574 1692 1647 1617 1682 1620 1629 1559 1586 1536 1469 1306 1337 1125 1147 1023 963 859 780 719 639 608 552 549 498 506 466 480 400 405 371 386 362 363 351 349 362 375 360 338 318 313 314 330 317 302 300 279 295 333 320 305 323 315 289 303 301 258 274 298 288 279 291 261 278 271 256 249 236 287 266 247 275 280 251 264 274 256 266 305 237 233 263 275 269 289 288 276 259 275 279 277 243 239 264 241 275 268 256 264 267 260 259 230 218 275 236 260 262 230 260 218 267 267 226 234 275 238 247 269 242 308 278 263 262 271 234 264 271 244 245 242 236 265 216 271 248 239 225 246 248 269 232 259 261 214 209 250 219 231 257 239 273 215 261 242 233 205 257 233 269 235 240 279 236 222 259 222 281 240 256 235 249 227 226 263 226 232 243 235 273 266 283 265 244 206 229 239 243 232 262 259 265 258 231 250 227 261 236 220 232 251 229 238 263 250 233 242 219 239 243 248 234 217 265 226 238 231 234 232 228 261 233 241 229 230 235 217 236 237 260 257 232 241 214 224 243 228 215 231 237 242 219 218 257 258 238 226 212 202 249 194 231 237 222 231 249 224 228 259 231 258 243 264 242 223 221 210 226 245 212 232 211 245 225 241 239 222 214 228 212 237 238 232 230 219 240 235 234 228 222 213 214 212 230 225 222 243 246 241 246 223 247 224 242 245 196 247 227 235 259 220 222 223 234 234 222 190 248 242 237 225 235 206 261 228 213 245 230 237 217 221 218 225 246 239 219 227 248 242 212 215 224 226 221 226 237 232 238 224 221 215 210 204 233 251 245 230 243 216 273 215 232 224 251 234 216 241 227 220 235 211 213 236 239 221 230 231 248 224 218 228 210 247 205 214 228 244 209 234 216 241 224 234 209 225 207 211 260 228 235 232 200 234 216 226 227 216 233 221 232 219 226 208 220 220 214 233 243 223 238 207 211 237 223 210 203 259 200 227 215 207 211 209 217 213 203 225 226 225 233 260 212 205 228 229 217 228 210 207 221 220 207 207 225 216 182 226 230 216 236 239 241 220 201 228 219 202 227 238 217 207 210 231 248 210 276 228 211 224 258 214 198 213 221 208 225 214 225 233 202 229 230 251 217 205 232 227 229 227 216 224 232 232 228 207 224 231 197 206 215 227 200 228 209 221 226 223 216 222 215 228 218 224 204 215 235 213 235 244 209 219 237 237 212 232 224 222 238 226 213 219 214 195 218 242 227 227 221 238 199 207 225 235 214 235 215 214 198 221 212 239 198 218 208 215 204 211 225 181 211 198 204 217 208 219 212 223 214 221 217 207 216 241 183 225 230 208 214 231 223 239 224 195 226 220 205 226 216 230 230 216 224 210 197 267 222 229 205 224 225 238 214 241 227 220 208 214 235 227 207 221 196 217 194 187 241 236 204 205 225 199 207 226 218 181 228 208 228 212 223 197 217 232 206 218 219 195 227 212 225 204 205 211 211 187 224 212 201 240 218 225 194 209 222 231 202 210 210 216 212 221 184 227 211 212 209 194 210 203 213 222 207 205 213 213 189 199 200 193 198 203 196 203 216 202 218 198 217 194 191 205 219 184 218 187 231 206 217 217 239 219 208 214 206 204 193 218 213 205 214 202 230 199 198 207 208 204 190 209 208 206 192 221 223 210 218 219 225 213 204 231 210 204 189 216 202 216 214 209 184 202 187 197 199 208 207 182 188 203 193 235 183 197 207 224 197 197 207 203 198 198 225 210 221 207 212 214 205 194 213 217 205 195 200 211 208 212 208 215 180 195 221 206 208 223 210 206 205 200 201 237 200 203 210 206 174 186 216 212 201 207 207 202 216 191 186 179 206 218 203 200 174 207 217 188 222 170 209 198 199 217 198 222 183 193 215 190 200 195 201 178 183 187 198 195 205 212 183 195 189 189 208 198 191 196 222 180 212 197 194 212 196 225 194 206 199 194 187 195 202 188 223 172 180 187 204 192 200 234 191 209 186 165 173 196 162 183 191 188 204 192 217 193 204 178 185 174 187 190 206 184 211 233 209 209 185 196 195 183 201 181 204 228 196 208 202 199 181 176 184 175 169 206 217 202 183 186 206 200 175 185 214 210 196 181 198 212 212 196 186 220 186 198 173 202 205 194 206 196 217 187 186 214 174 184 175 177 185 188 195 184 199 206 183 199 194 179 219 196 206 165 191 205 174 178 187 172 193 177 175 189 193 196 199 173 173 171 201 221 188 178 153 194 174 174 196 183 185 210 206 212 184 182 194 200 213 180 215 166 183 192 183 182 176 193 197 176 179 193 211 195 180 215 200 165 176 195 158 203 203 189 203 179 199 202 230 181 204 204 180 213 178 193 165 197 180 190 199 170 179 204 180 194 181 209 197 203 194 213 195 223 215 208 196 205 222 205 192 199 203 188 221 206 232 196 191 210 214 226 206 206 233 185 203 221 200 210 213 188 205 196 191 191 190 208 203 198 194 195 196 182 187 195 205 189 189 160 196 189 176 194 164 187 196 201 184 179 197 183 191 190 176 158 178 205 177 198 168 151 191 185 175 155 177 182 214 195 179 173 163 174 165 200 172 159 150 174 186 177 172 196 193 194 181 171 182 182 179 196 178 170 192 173 207 179 173 188 191 180 181 172 200 183 188 176 189 195 168 188 182 177 189 186 161 198 186 180 179 172 175 160 186 179 192 186 188 184 193 176 192 195 178 200 195 177 191 197 210 212 181 197 178 185 187 170 177 188 179 196 209 180 187 196 217 194 191 192 184 209 180 164 174 201 194 173 183 182 161 195 184 167 175 184 189 166 179 183 166 179 152 171 176 208 174 166 208 177 176 169 182 190 186 187 185 168 208 176 180 188 193 189 186 181 175 174 177 183 171 149 198 172 179 179 187 175 195 189 185 172 194 187 210 206 176 225 202 196 178 211 194 172 185 191 194 183 191 182 183 205 193 196 191 210 184 193 198 198 201 218 228 192 197 216 211 226 200 200 190 190 185 244 197 198 201 204 209 237 221 206 226 221 243 263 235 244 241 230 227 237 259 256 283 262 271 265 270 283 306 315 308 321 335 359 356 371 400 442 433 448 475 503 520 559 608 613 656 673 783 756 828 872 942 995 1024 1033 1082 1094 1187 1223 1238 1265 1290 1284 1284 1208 1128 1188 1125 1111 1151 1042 986 983 929 886 803 732 734 717 633 628 605 571 559 566 509 508 460 470 461 447 470 451 428 439 429 465 511 474 492 475 552 486 542 537 532 571 613 630 620 662 695 720 742 798 849 858 907 970 968 991 1054 1195 1178 1155 1155 1313 1368 1414 1450 1469 1503 1448 1595 1537 1437 1497 1473 1497 1462 1508 1353 1473 1411 1417 1438 1389 1474 1483 1476 1498 1454 1573 1637 1626 1673 1758 1812 1796 1853 1861 1862 1922 1881 2015 1937 1994 1923 1935 1849 1804 1764 1748 1633 1656 1575 1549 1390 1273 1237 1179 1134 1018 1007 960 877 805 745 717 704 648 572 588 532 543 550 496 434 436 422 412 397 429 368 342 365 322 329 324 288 281 299 332 309 272 294 229 278 258 276 292 242 234 256 260 229 235 241 225 247 243 216 249 197 226 231 218 228 205 219 217 214 231 218 185 202 225 192 187 183 200 207 205 207 186 195 206 201 219 177 186 167 193 193 193 193 182 186 186 188 187 160 168 171 171 189 168 181 164 202 207 179 196 185 174 172 174 155 179 167 196 177 176 190 217 166 171 176 171 195 180 150 172 179 170 170 180 204 138 171 189 196 178 161 177 183 170 180 175 182 172 192 166 192 174 182 188 201 161 175 175 158 173 173 180 159 159 173 150 170 186 162 187 179 168 160 168 175 155 176 159 167 135 169 154 167 166 155 159 169 179 155 139 190 164 150 173 161 167 201 162 161 172 162 162 183 173 156 146 184 156 172 167 172 153 182 162 175 160 157 177 147 150 156 169 142 144 158 156 154 168 155 161 149 156 154 164 146 173 144 177 169 153 204 163 160 175 149 147 139 163 156 160 186 153 160 177 164 172 165 170 171 163 148 156 136 168 162 169 142 162 179 142 158 164 176 183 142 156 179 163 173 167 169 147 149 146 147 167 169 161 131 173 157 156 169 157 160 158 129 138 152 191 158 156 155 151 170 148 163 153 159 143 170 181 161 176 138 153 166 145 158 154 170 144 140 175 175 171 171 140 156 136 170 150 142 148 166 148 156 171 180 166 149 175 150 166 157 148 158 159 167 153 161 158 165 154 157 155 179 182 165 164 163 168 149 142 164 170 175 171 161 180 152 155 154 141 149 141 146 152 162 149 158 174 149 147 182 162 169 171 145 137 151 161 157 149 156 149 162 170 149 145 159 176 153 154 136 191 162 162 175 163 151 145 171 136 150 144 138 139 138 156 145 141 154 169 155 154 169 141 150 158 133 174 158 135 159 140 154 156 143 158 150 158 172 155 160 153 158 143 173 151 171 159 133 145 163 154 126 159 149 167 148 172 150 147 162 164 152 167 153 136 140 171 157 155 161 163 141 149 153 174 149 150 155 147 149 152 156 147 149 150 143 143 174 135 129 174 152 150 168 171 136 165 136 135 138 147 156 178 146 173 121 158 134 171 148 149 155 157 157 154 147 167 146 145 148 135 147 142 141 136 142 164 134 139 139 171 161 175 155 138 169 125 140 145 155 132 146 152 141 145 132 151 156 147 142 122 160 134 150 145 145 144 144 142 143 151 138 150 146 170 134 144 154 135 147 157 160 137 155 166 181 134 152 162 140 158 146 132 151 143 157 152 154 157 134 161 149 134 148 148 151 184 174 131 165 165 162 141 133 145 144 156 152 163 149 138 139 156 174 159 153 168 156 148 138 149 147 140 168 159 156 144 156 137 165 173 160 147 185 170 154 138 152 181 176 158 158 165 146 145 142 149 184 157 161 153 165 151 146 145 158 178 147 146 170 171 179 160 179 173 172 160 174 172 218 194 206 186 185 168 179 201 199 209 191 229 203 259 256 263 235 267 251 282 263 339 326 305 335 369 374 406 368 400 422 457 430 461 480 493 507 556 507 563 553 547 530 501 504 510 505 455 399 418 395 420 418 386 377 357 332 316 328 303 285 276 260 241 249 209 193 226 206 189 195 224 176 186 189 205 221 186 190 207 177 189 195 181 194 181 178 177 168 187 191 154 161 183 162 154 149 175 194 199 178 176 180 169 168 164 160 175 170 180 178 162 187 172 177 174 160 172 182 170 162 164 165 186 183 176 197 173 167 184 186 163 148 149 172 159 168 166 176 168 178 158 156 178 148 154 165 177 160 149 180 159 142 154 144 153 152 146 148 143 174 152 148 151 144 168 154 139 149 160 159 142 166 155 157 151 143 142 132 149 128 165 131 139 150 155 152 150 134 133 147 147 160 121 148 150 146 126 139 150 147 141 167 171 135 142 154 175 147 130 154 143 152 142 154 164 151 154 152 159 137 161 135 153 130 137 145 145 160 137 146 138 164 146 162 162 150 150 154 163 153 156 146 145 143 147 143 157 150 142 146 153 129 161 158 131 147 153 146 156 137 142 135 133 168 141 151 131 166 158 153 151 149 150 145 133 151 165 155 154 150 127 153 145 146 162 141 153 150 157 148 156 152 171 162 170 147 156 142 162 164 157 160 163 173 159 184 181 153 179 149 155 178 138 177 149 140 151 151 178 173 151 164 161 178 178 188 160 187 173 173 170 172 191 184 204 207 215 188 216 201 221 245 236 234 258 244 235 302 290 257 298 281 313 354 350 356 370 410 370 433 425 474 526 515 518 571 578 619 607 661 704 728 737 768 758 812 839 872 935 899 919 879 918 988 902 910 932 873 858 787 765 813 754 746 690 621 650 596 502 536 526 461 458 425 421 375 371 384 346 271 284 277 257 265 285 257 233 264 251 226 236 202 210 192 218 179 185 205 188 176 188 167 171 185 185 148 186 177 171 178 170 168 172 161 178 181 176 159 166 153 153 154 187 169 153 173 155 161 168 172 163 154 136 155 151 132 141 144 162 155 143 174 143 143 164 162 174 153 165 165 147 132 171 148 152 119 142 140 167 170 127 167 142 156 197 148 138 135 156 156 153 149 146 131 148 125 157 149 143 119 135 137 156 151 145 167 157 150 163 140 171 151 149 148 181 147 150 138 147 180 143 163 156 144 139 144 139 149 166 144 169 142 175 174 161 169 148 192 175 153 149 161 155 171 166 159 144 158 165 198 164 191 178 158 158 149 166 157 173 167 159 164 177 140 155 177 188 175 164 161 163 184 166 159 155 200 186 148 174 188 171 165 194 161 188 175 170 185 196 187 181 193 185 205 178 189 207 223 193 204 171 200 202 218 220 209 225 194 219 213 263 274 222 248 258 261 271 280 242 279 301 295 287 342 306 350 361 363 377 417 447 439 456 456 511 566 566 586 642 687 690 731 814 888 934 979 1021 1078 1178 1191 1288 1336 1452 1480 1475 1664 1655 1738 1733 1822 1788 1834 1843 1875 1859 1841 1879 1900 1948 1902 1923 1892 1929 1790 1917 1856 1847 1721 1708 1615 1724 1605 1613 1526 1490 1389 1377 1284 1323 1174 1175 1098 1076 1056 989 908 918 865 819 781 758 665 589 605 592 526 519 501 475 492 460 446 412 400 381 367 381 368 290 315 323 298 278 269 308 298 269 278 250 261 249 267 257 259 208 243 221 228 237 223 245 232 224 220 193 217 235 200 199 186 228 219 213 208 213 234 198 225 191 219 224 196 187 189 189 203 168 206 181 168 175 176 164 175 176 165 181 174 160 166 182 150 172 173 151 162 160 170 160 141 169 150 151 159 183 189 163 151 183 183 164 197 143 150 144 168 151 160 161 139 143 164 141 153 179 160 144 139 136 178 141 153 138 149 138 146 141 142 131 159 154 177 162 130 150 161 131 140 129 185 158 166 126 171 131 138 150 145 141 121 175 138 132 138 146 140 148 171 141 143 141 141 144 131 134 135 129 151 160 147 126 145 163 147 145 144 175 143 142 145 154 106 132 136 168 169 123 161 140 132 138 180 178 158 148 136 157 133 146 153 135 138 169 142 152 158 165 152 157 144 154 139 161 147 180 181 156 168 163 180 163 187 182 173 172 202 187 168 202 231 183 224 221 213 239 234 233 263 219 280 289 324 280 309 308 304 303 319 342 345 348 337 342 343 342 343 330 393 345 319 345 333 331 332 322 282 325 318 319 273 309 290 306 274 282 271 243 239 221 244 207 216 204 216 196 175 184 187 185 183 187 178 168 177 156 188 181 171 185 153 167 170 173 155 170 158 187 205 158 191 151 190 180 173 159 166 172 184 194 171 189 185 215 213 215 210 198 213 210 179 222 216 234 243 220 289 301 311 292 317 331 399 427 412 487 482 501 558 562 591 634 699 690 784 803 817 732 805 822 832 773 767 725 744 763 742 718 689 671 614 625 606 582 548 548 487 513 462 458 420 384 360 373 299 342 274 284 266 277 232 215 219 212 204 209 195 192 189 176 167 174 180 159 186 181 163 152 178 177 175 163 158 171 138 148 151 167 151 174 157 171 134 157 156 137 147 148 153 137 155 120 153 155 127 141 141 135 128 146 137 151 132 140 158 136 159 159 146 138 136 130 156 141 131 135 131 138 144 123 149 118 108 142 147 137 138 135 132 138 131 126 130 116 130 147 129 137 120 132 131 128 144 123 107 142 129 140 156 150 173 130 136 144 148 119 149 147 142 138 125 133 160 136 129 136 134 130 134 136 134 135 173 124 148 148 140 148 168 140 147 165 153 123 135 159 160 131 154 146 136 152 165 149 156 145 156 151 151 142 164 162 184 181 181 158 184 182 189 187 197 196 206 228 209 199 212 216 259 219 279 232 272 279 247 263 293 273 316 319 322 326 322 354 382 346 376 377 431 413 416 409 419 428 410 481 435 412 450 435 425 433 414 400 425 437 411 405 440 385 362 365 346 324 331 343 333 288 318 301 275 280 256 250 281 258 222 262 225 214 221 215 200 205 166 196 183 150 162 195 181 156 188 188 158 175 137 146 145 157 162 141 139 156 138 130 128 133 138 135 145 139 128 134 139 139 140 154 136 111 164 124 129 121 151 153 140 159 135 137 127 136 132 136 142 138 128 139 130 131 142 134 141 145 127 136 115 139 127 140 116 133 122 137 113 147 150 145 149 137 135 135 128 142 120 131 119 139 132 147 119 152 125 125 158 116 124 133 119 148 140 137 129 113 128 135 134 150 131 134 138 125 144 121 135 128 146 114 144 154 117 141 128 124 132 127 119 126 137 151 126 129 146 118 147 145 125 137 148 138 140 158 140 156 128 140 149 145 127 129 150 152 114 153 149 146 172 162 152 148 184 182 154 156 177 206 177 179 175 204 181 208 185 196 212 216 204 219 229 214 220 256 263 247 301 326 322 333 350 360 370 429 401 436 448 469 494 541 562 580 664 685 666 750 764 769 888 852 927 994 955 966 1028 1030 1078 1077 1078 1125 1110 1157 1066 1146 1109 1042 1088 1023 992 959 986 905 905 838 901 780 780 737 700 695 721 651 627 583 570 549 565 477 503 422 401 373 357 343 334 317 287 292 306 250 283 262 259 263 266 228 256 222 225 192 225 186 184 182 223 177 197 183 157 189 170 178 186 170 157 159 151 163 171 153 165 139 150 165 134 150 157 160 135 148 159 164 157 164 165 128 146 140 149 140 149 161 124 146 145 147 137 114 152 129 169 155 144 133 138 133 131 143 172 154 143 130 146 120 156 141 145 142 141 130 133 134 131 137 145 141 136 137 155 133 131 141 119 156 128 141 156 131 133 153 131 140 132 147 134 122 146 115 134 117 158 131 117 128 128 142 107 131 141 114 153 120 136 125 141 146 160 151 128 137 101 124 135 138 136 145 140 134 138 124 148 138 127 146 130 151 152 137 155 140 124 143 135 130 138 139 158 117 147 142 125 136 141 147 155 129 130 154 126 174 157 153 152 159 164 160 175 152 177 169 150 179 178 159 196 179 185 182 179 218 219 196 226 223 205 237 242 220 231 269 268 284 272 290 325 311 320 354 348 351 370 363 377 386 448 441 453 453 435 500 486 493 509 522 521 544 522 522 502 536 524 539 504 478 482 453 455 431 487 465 448 445 451 409 403 388 381 366 393 353 351 348 323 326 332 328 325 318 283 285 289 283 296 315 257 240 271 275 233 211 229 261 245 257 224 288 235 249 235 265 234 257 264 256 238 263 267 247 265 282 262 298 293 285 287 323 321 279 361 344 368 387 398 416 452 489 503 508 612 623 655 693 718 797 811 947 925 1022 1107 1125 1227 1261 1267 1371 1424 1437 1549 1573 1540 1646 1593 1578 1525 1496 1610 1498 1444 1402 1417 1435 1360 1374 1366 1236 1263 1245 1168 1112 1078 1116 947 1006 895 862 821 738 735 678 607 591 566 502 483 482 419 448 422 367 421 330 348 353 310 317 291 305 311 273 246 249 256 265 218 235 194 199 212 214 197 202 185 196 188 175 145 171 203 182 180 181 189 197 179 154 164 181 173 182 152 167 140 155 146 164 137 148 172 152 154 127 144 151 125 135 143 141 135 153 151 153 156 128 145 137 131 173 141 136 143 146 125 132 150 137 160 124 163 140 134 134 145 159 149 138 128 146 155 145 137 143 138 145 129 116 124 132 134 117 145 125 122 119 130 135 144 140 156 139 125 148 132 153 139 143 153 135 139 145 149 126 153 143 140 140 134 169 150 169 140 136 148 153 159 143 173 182 152 144 156 159 172 168 167 163 151 185 145 176 168 159 168 163 176 168 206 158 189 158 155 159 177 170 163 156 203 167 177 184 180 146 166 147 152 159 175 161 144 146 132 140 171 168 146 143 176 135 137 109 130 125 142 109 120 140 130 136 132 145 126 109 126 110 130 128 125 133 134 116 120 138 116 141 129 143 121 116 118 122 111 139 126 115 127 128 125 122 113 101 124 133 114 126 119 115 126 132 122 111 119 119 137 117 125 117 131 118 122 125 118 125 126 99 105 116 116 129 122 111 140 144 122 156 119 128 123 111 120 124 124 127 131 129 149 139 135 139 114 136 123 123 116 99 123 102 117 125 123 129 113 131 120 135 135 132 129 111 104 110 117 123 114 117 111 126 119 102 116 95 124 114 120 117 111 122 134 122 117 132 120 101 122 126 129 116 120 103 116 123 131 129 138 136 130 122 132 142 121 121 123 112 124 113 125 104 131 123 135 124 117 142 119 141 110 122 120 134 123 123 129 125 120 134 121 128 132 127 114 132 128 115 144 137 131 132 138 162 142 153 146 136 145 144 127 146 138 166 147 125 157 154 152 146 168 150 136 170 162 126 144 122 132 157 144 132 134 131 147 140 139 134 134 143 133 132 132 137 146 142 135 147 119 123 124 116 138 127 135 122 137 141 115 112 129 129 133 113 129 115 125 124 119 100 125 139 119 136 132 112 139 112 107 123 108 125 128 124 126 128 138 103 131 122 118 134 114 130 113 130 114 109 120 116 131 123 110 107 126 139 136 132 107 127 118 120 110 112 118 118 139 108 132 126 120 101 129 124 132 96 124 125 123 142 125 122 133 95 136 105 139 96 110 124 118 132 132 113 110 124 129 130 112 132 117 117 126 137 125 143 113 132 129 143 129 131 122 110 128 117 133 120 118 141 129 121 134 126 143 129 142 148 119 139 129 116 137 125 128 146 124 148 136 147 128 155 165 126 127 134 123 146 138 151 137 149 153 139 139 145 161 161 156 141 141 134 145 131 127 150 137 143 157 158 140 128 140 141 148 145 143 130 137 137 158 138 130 154 145 130 131 104 138 135 135 132 138 137 140 140 124 144 133 144 140 162 146 131 138 123 154 148 162 150 139 156 154 142 153 134 149 145 160 165 149 114 155 179 158 159 170 164 149 154 166 158 197 175 171 163 153 156 152 178 161 179 191 179 172 186 187 207 209 207 175 222 206 205 189 195 205 191 206 196 203 228 210 236 205 193 200 234 196 232 201 198 207 196 189 189 217 196 206 201 200 201 194 201 185 207 190 191 174 191 194 186 188 185 158 187 182 154 170 180 171 192 171 165 184 145 154 162 168 175 158 134 158 176 155 133 154 169 145 123 164 159 163 168 157 138 144 162 134 114 135 149 154 147 151 134 142 128 128 147 131 148 137 153 138 199 141 156 142 140 134 135 157 149 142 136 131 154 126 137 134 156 158 151 126 144 149 135 140 141 152 142 145 144 144 150 146 149 140 132 139 135 123 146 145 127 139 150 174 155 160 143 155 131 178 143 165 171 184 159 176 146 173 159 147 157 154 130 160 152 141 151 158 142 173 149 163 149 176 163 177 158 175 172 163 168 152 190 178 163 170 147 147 178 173 179 186 175 184 192 194 195 213 193 237 214 207 220 202 222 225 248 182 205 278 295 213 256 234 270 251 248 271 260 257 262 234 244 248 246 249 248 241 241 240 237 251 238 238 237 266 244 227 226 249 207 222 228 216 198 224 191 212 186 169 173 201 190 195 211 181 189 170 147 179 165 159 141 161 149 175 139 155 139 150 148 142 168 154 152 149 161 132 144 170 134 174 138 137 140 156 149 137 140 131 145 121 127 121 127 129 110 132 144 128 129 135 130 111 123 126 105 127 118 139 112 109 130 115 135 112 127 130 130 125 103 126 104 106 116 141 122 143 129 120 110 123 131 140 120 137 128 133 108 106 121 124 135 127 135 115 132 107 127 124 111 128 124 124 118 134 111 118 131 113 118 134 128 109 117 122 109 114 107 117 131 128 123 118 116 102 112 125 128 131 138 121 121 128 139 132 113 146 123 106 116 126 123 126 115 124 124 135 118 116 142 136 140 109 136 116 121 113 111 116 116 124 130 111 133 127 122 122 120 117 134 137 115 107 134 123 130 146 151 140 156 152 116 147 118 128 135 126 127 121 140 108 145 130 114 155 143 124 124 104 122 139 117 131 120 109 115 127 137 126 117 130 107 134 118 117 115 126 113 124 111 116 127 104 119 126 130 121 110 104 106 117 122 121 110 125 119 120 121 110 117 135 121 121 108 125 119 136 124 133 113 119 116 133 118 144 138 120 109 121 128 119 138 110 157 123 117 98 117 104 103 132 128 140 141 139 127 133 102 118 135 135 122 130 141 85 119 106 122 145 100 134 102 123 110 125 134 123 135 127 120 122 139 123 141 114 106 106 112 117 106 136 137 104 112 122 101 139 140 119 126 116 110 111 118 134 102 114 126 119 118 118 103 128 110 135 115 131 118 128 113 109 118 115 111 129 134 131 104 120 124 109 144 138 134 128 124 117 139 121 124 123 136 109 137 120 127 146 126 140 127 139 120 121 134 129 144 148 142 151 135 135 150 149 149 150 166 149 134 169 153 172 134 153 161 154 174 160 166 187 208 153 188 182 195 176 177 182 212 189 233 214 233 221 278 266 280 300 283 308 302 360 370 356 394 428 447 464 482 512 530 540 557 576 602 628 626 620 661 691 728 633 721 643 652 673 661 675 651 615 628 657 643 625 644 595 578 590 584 589 545 542 507 517 528 525 447 451 468 473 445 382 386 340 339 345 339 333 283 303 297 280 268 239 251 281 220 215 220 193 219 197 222 165 190 226 199 209 189 186 182 154 177 194 173 160 146 157 155 187 143 172 173 133 143 152 156 138 148 157 137 136 152 139 111 156 141 123 122 140 140 148 145 136 144 151 118 127 145 152 136 144 150 153 130 147 158 130 155 145 116 134 161 155 142 157 161 149 157 156 171 153 170 142 173 150 142 152 159 161 163 156 180 182 164 196 191 165 198 198 179 156 206 188 195 212 200 206 224 228 219 189 203 179 223 208 229 231 217 213 233 218 243 270 215 205 211 238 245 227 258 206 247 211 238 228 217 244 221 231 227 282 223 231 259 209 247 230 272 277 265 280 266 272 257 273 261 236 274 279 266 288 307 334 297 257 310 272 326 275 318 281 273 310 311 324 286 281 322 331 323 286 338 308 305 303 302 265 291 301 315 309 286 288 292 321 313 273 290 275 259 267 248 263 260 247 271 256 219 248 248 219 229 234 225 235 228 215 217 214 226 185 204 190 172 196 186 184 165 207 193 194 171 149 151 164 146 169 171 191 152 144 148 138 149 153 164 125 155 113 142 137 141 146 132 144 150 143 143 125 134 104 124 139 128 136 129 131 137 126 124 117 141 125 122 141 126 134 128 103 115 122 104 119 119 129 130 116 131 132 135 112 123 131 134 139 98 108 110 126 137 116 112 107 138 109 132 125 101 112 107 126 116 133 128 106 118 130 108 102 138 108 121 137 127 110 118 128 118 106 122 104 107 114 119 125 128 118 125 108 107 114 122 109 113 103 113 96 119 118 94 115 122 112 107 99 110 109 110 116 131 111 118 98 109 117 110 89 118 138 116 126 107 113 108 105 92 107 141 105 125 114 117 103 111 105 122 108 102 116 111 110 125 129 127 105 114 117 136 116 135 110 113 98 113 104 108 120 100 133 104 120 125 108 102 118 121 100 124 121 136 115 126 120 108 116 116 115 110 115 104 121 112 104 116 132 117 97 112 99 119 133 105 116 120 109 109 124 127 115 133 112 123 114 105 109 120 110 97 118 105 121 109 127 103 99 101 125 97 122 141 117 98 122 114 136 115 142 110 122 119 124 92 110 92 132 117 116 102 120 119 84 118 123 115 100 120 125 100 102 111 116 108 113 116 138 127 116 108 107 107 104 127 117 117 124 115 124 114 139 120 94 111 98 120 114 115 112 112 115 138 115 126 121 121 108 121 114 111 129 98 131 115 120 137 112 120 120 122 110 114 130 126 138 120 118 96 98 117 120 104 123 130 112 107 144 123 107 114 132 132 115 123 149 114 124 119 118 130 129 108 137 133 110 138 128 138 102 120 109 117 115 119 118 127 148 121 110 138 119 126 123 124 131 120 128 154 123 123 148 137 142 130 136 144 141 152 137 121 135 122 130 141 149 135 144 136 140 153 119 144 142 153 137 156 165 151 163 174 147 121 169 143 172 164 161 171 147 151 160 164 182 158 154 162 178 170 191 159 174 176 200 206 191 194 220 197 213 215 230 209 231 243 229 244 257 268 302 280 314 317 309 337 347 386 381 434 375 453 451 506 526 541 565 590 597 663 672 795 778 786 864 906 930 939 955 1040 1110 1069 1106 1095 1084 1184 1181 1162 1172 1148 1191 1184 1235 1229 1261 1181 1158 1160 1210 1195 1198 1186 1140 1171 1124 1123 1201 1122 1123 1070 1101 1050 1019 984 1022 941 977 963 940 965 843 806 816 784 732 749 742 739 650 628 656 599 606 538 500 549 507 461 469 466 446 472 446 400 414 387 403 375 346 353 326 317 317 277 306 306 266 319 279 276 240 258 233 260 213 214 219 219 250 222 239 210 210 191 193 209 216 191 209 203 192 204 168 187 191 190 195 171 195 199 228 214 192 175 182 200 200 174 205 210 196 208 187 203 190 208 189 210 211 176 202 190 182 194 184 203 195 180 201 199 189 186 187 194 184 173 175 190 179 211 175 195 195 176 177 183 198 188 180 178 170 198 163 144 171 184 187 171 174 174 190 163 139 143 146 160 182 164 158 156 167 142 149 143 155 149 141 150 142 157 141 152 159 156 139 138 137 144 147 117 139 127 155 137 137 145 143 120 126 127 143 133 157 137 143 152 128 127 137 102 116 147 126 125 127 137 116 122 142 138 153 124 120 135 124 126 127 130 154 114 148 132 145 121 163 128 144 156 139 132 138 149 143 111 138 125 138 168 123 130 122 142 131 152 138 139 136 143 147 146 139 122 137 110 117 150 122 127 148 136 128 129 133 140 139 116 111 111 114 138 140 127 134 105 146 129 116 141 153 105 122 131 120 124 132 105 149 144 119 122 145 143 128 123 123 136 146 127 140 122 127 140 126 132 147 133 157 162 138 130 150 146 143 141 136 160 165 164 141 142 150 167 153 151 183 158 168 169 166 143 183 150 163 161 159 158 153 141 168 134 169 152 161 157 152 146 154 184 143 144 164 159 136 156 150 151 139 141 124 161 136 126 153 141 147 129 146 154 140 122 132 140 154 134 154 124 128 134 140 134 132 155 132 127 150 133 142 133 141 136 130 145 136 133 157 149 128 153 159 134 159 136 149 144 143 151 130 165 151 167 128 153 158 172 134 157 181 172 177 173 179 168 172 184 192 177 184 215 193 202 189 227 207 223 186 209 213 214 213 237 234 293 243 262 284 285 276 299 282 284 329 301 333 322 339 310 369 385 373 408 416 462 459 465 460 502 506 517 499 525 513 550 530 543 594 554 630 622 563 618 594 619 642 571 586 594 560 621 567 593 534 552 591 532 594 547 541 567 505 507 546 466 536 474 499 443 450 438 429 431 409 421 415 396 399 384 383 361 340 358 335 314 313 356 319 305 277 270 294 305 290 314 284 279 250 312 243 267 295 293 248 270 230 242 245 234 238 238 244 247 240 238 241 240 240 247 238 265 204 260 259 236 294 249 231 232 249 246 210 244 237 241 248 225 230 217 239 231 186 214 241 208 185 219 211 206 198 197 221 192 192 212 189 178 185 174 202 201 190 188 198 153 155 159 156 181 161 148 187 163 162 153 147 158 159 144 160 169 170 150 153 154 129 156 154 135 134 122 148 151 140 142 153 126 142 122 129 130 132 137 138 122 110 149 124 120 124 120 124 124 153 127 124 123 145 139 109 106 116 118 123 115 108 129 110 130 115 129 126 130 107 107 110 111 119 124 131 137 139 132 131 130 106 119 123 128 116 129 122 122 118 127 155 109 126 112 122 118 117 127 135 129 125 113 98 118 113 116 134 125 111 127 109 103 129 130 112 135 142 113 103 101 117 106 108 135 123 111 115 128 103 121 121 128 119 108 117 121 127 124 123 120 143 112 131 132 129 137 103 116 133 122 115 123 126 122 128 118 123 125 130 130 104 118 122 115 112 139 109 124 115 107 121 97 139 96 107 129 120 149 129 113 129 111 136 128 131 115 138 98 111 126 126 121 134 116 112 137 126 129 124 118 120 140 136 123 122 136 103 119 124 144 113 111 127 127 114 111 122 127 126 116 137 117 122 125 136 134 126 128 141 105 145 124 125 132 144 114 140 134 124 130 139 160 146 152 153 136 136 144 161 150 140 150 146 135 151 149 151 143 165 149 136 140 170 154 163 151 149 136 140 138 185 140 142 161 156 171 145 150 135 174 181 156 180 170 170 201 165 171 176 176 197 187 198 188 158 163 202 174 207 207 207 195 217 189 200 200 201 185 200 208 206 206 203 187 219 236 246 217 209 221 198 186 210 212 213 221 239 209 221 208 207 207 201 209 217 205 201 194 194 165 199 198 206 198 204 188 174 215 175 157 176 184 170 199 171 170 147 169 146 186 156 147 182 172 146 169 161 159 144 139 154 148 139 146 129 142 132 146 160 135 139 143 120 127 145 144 132 151 151 155 114 126 149 142 137 143 136 132 137 130 133 159 153 125 134 145 149 133 165 152 140 155 132 140 166 147 135 160 155 150 150 155 140 173 158 168 174 163 179 161 184 191 196 180 183 212 211 206 243 196 206 232 275 251 280 282 264 231 246 270 289 269 289 290 306 306 311 320 303 327 319 366 357 355 335 338 321 319 357 311 353 340 323 348 326 350 362 376 332 338 328 321 319 298 298 333 326 297 295 280 285 293 271 273 278 306 269 239 281 264 274 263 244 261 229 273 223 228 256 221 216 224 199 212 224 188 193 178 182 199 145 175 194 186 162 177 170 177 176 174 136 143 156 182 130 148 131 160 161 170 157 144 123 140 135 142 128 148 149 137 152 136 142 133 134 137 148 129 132 143 148 142 135 133 126 158 129 131 114 122 127 148 125 141 124 147 147 149 122 153 135 125 139 124 159 134 128 150 154 120 142 129 147 153 120 139 149 133 152 173 132 166 144 151 145 127 134 187 151 163 145 172 132 159 154 145 141 175 136 170 159 144 166 171 161 164 176 159 168 175 184 171 192 159 188 169 140 132 137 160 160 147 178 143 140 161 164 140 176 173 169 158 147 156 142 152 136 147 136 155 121 154 147 167 149 142 170 173 148 150 133 132 149 137 154 146 139 149 143 153 161 169 152 162 150 182 163 140 155 147 150 146 150 152 152 149 159 168 183 183 175 160 149 181 155 179 163 199 160 184 210 180 214 218 181 202 204 226 192 204 221 202 231 276 219 240 245 235 285 308 295 320 307 303 344 336 351 377 418 388 404 373 426 437 473 468 482 493 488 510 542 542 533 541 506 518 546 574 489 522 531 518 547 490 526 534 502 502 503 470 457 479 433 494 486 474 470 472 429 422 470 431 411 393 396 380 353 372 377 360 378 358 349 359 304 305 313 311 288 263 278 269 270 259 237 228 232 224 200 211 218 189 217 176 180 205 190 196 148 159 176 175 155 162 178 145 172 156 160 170 171 161 160 178 179 159 128 166 146 158 173 163 170 161 173 133 163 147 155 145 145 141 145 156 137 159 156 161 144 160 178 171 147 157 144 149 160 161 140 152 135 138 133 134 150 140 138 133 142 153 129 157 148 137 139 164 141 138 139 132 144 144 136 129 140 148 121 134 136 128 173 133 137 139 118 141 137 121 125 120 115 104 131 149 111 134 133 123 156 137 159 129 129 113 163 137 120 157 148 128 120 157 129 133 146 146 134 139 131 127 134 113 155 127 125 127 143 123 125 141 154 154 149 139 132 142 184 160 139 155 148 167 164 153 151 171 177 171 182 164 179 166 180 215 171 199 214 207 211 212 227 261 230 233 261 278 300 261 315 316 323 383 413 394 385 436 482 483 523 528 526 569 619 621 627 710 650 652 715 724 708 724 714 704 705 695 682 628 676 641 626 613 594 597 663 615 579 615 586 618 557 540 622 579 579 551 544 522 564 586 525 542 481 495 480 484 479 436 479 400 418 411 393 330 341 348 306 304 282 320 271 277 257 229 248 239 247 222 234 220 197 183 172 195 198 188 179 206 166 151 165 158 155 133 147 176 166 160 156 153 150 136 158 136 144 160 146 157 134 124 137 138 137 119 124 137 130 116 135 135 139 164 136 142 115 124 123 127 113 138 109 127 123 117 145 117 134 111 125 125 109 130 125 132 135 118 100 108 145 120 117 131 117 111 115 119 125 126 110 118 116 122 134 111 116 103 127 111 136 118 133 104 131 123 116 119 132 129 119 128 120 111 112 125 138 110 123 129 123 115 107 117 103 114 120 100 114 141 119 116 126 132 115 114 123 135 129 110 147 136 137 124 138 129 127 136 147 143 131 134 153 156 143 145 147 137 130 159 148 138 139 113 144 159 154 164 127 164 159 169 149 164 168 143 133 147 166 152 151 171 189 155 179 164 162 165 192 158 197 176 171 177 177 169 154 192 148 176 150 191 141 174 211 180 163 173 171 171 170 162 158 178 160 174 171 158 163 169 161 171 152 154 147 168 157 159 153 173 172 143 143 130 144 146 146 150 167 151 155 137 167 158 156 141 126 150 163 143 149 135 158 142 165 134 158 143 130 135 153 151 148 135 137 152 147 174 160 144 159 164 164 149 151 168 166 181 157 164 182 168 167 161 153 176 183 180 179 190 158 196 180 208 216 191 194 202 215 194 205 207 236 259 246 224 224 218 249 250 267 257 227 239 267 265 246 292 231 259 268 295 305 287 276 279 266 272 261 283 257 237 260 261 268 279 283 248 287 256 276 273 289 238 304 261 265 226 245 235 250 273 264 223 257 298 256 281 247 256 265 281 249 233 223 283 230 276 265 288 259 232 249 259 240 246 250 227 267 248 234 247 212 242 226 225 239 188 242 195 218 211 214 209 210 229 199 194 206 208 191 199 200 209 188 198 194 190 183 211 168 208 169 198 209 180 165 199 192 182 181 194 171 190 188 169 157 184 163 137 163 175 155 181 151 153 145 150 159 160 164 151 147 129 153 151 154 149 160 151 155 150 134 179 151 145 153 168 129 147 145 148 158 136 138 141 148 156 118 137 146 137 144 140 148 134 155 135 138 129 140 158 138 141 148 145 136 147 122 162 128 150 126 132 145 130 114 142 128 139 127 140 137 132 141 126 130 134 146 128 122 133 140 137 148 132 122 140 113 120 150 139 130 141 139 129 143 128 126 131 125 133 156 129 129 132 156 130 122 137 126 134 123 146 133 117 123 132 121 118 135 107 125 120 144 128 133 142 131 116 113 124 130 137 125 131 125 122 144 134 118 128 123 136 116 123 117 116 137 128 107 131 131 113 142 115 134 136 132 108 118 127 122 122 114 127 115 117 117 136 118 108 103 128 113 140 128 124 133 125 115 121 127 129 118 134 132 119 130 110 132 107 120 137 110 124 117 123 130 123 120 122 127 128 100 122 114 122 117 105 142 115 128 126 88 103 110 119 115 106 117 122 130 125 112 123 101 115 102 128 114 121 108 132 103 132 99 115 117 120 118 123 115 135 106 106 122 112 102 125 125 102 114 112 101 96 115 129 113 115 127 126 122 115 111 113 116 93 101 132 119 93 122 123 118 138 106 120 98 115 97 95 119 97 103 99 110 109 116 112 102 105 115 111 108 110 144 102 98 116 134 117 114 123 123 115 106 106 128 132 135 96 95 123 110 134 123 119 100 116 130 118 105 111 135 119 123 91 140 109 100 102 114 102 116 112 125 145 97 121 106 123 117 114 113 120 129 131 108 114 114 125 104 130 129 114 119 132 97 116 123 100 128 104 105 118 135 108 119 103 112 116 105 107 131 132 125 107 113 160 128 135 120 124 128 135 135 125 129 118 143 128 140 127 128 121 136 139 125 139 148 155 160 171 146 137 176 155 155 153 158 150 144 154 190 150 151 179 181 164 170 156 177 175 192 177 181 192 178 190 201 216 212 200 195 207 188 199 188 227 237 229 232 223 227 240 235 260 251 238 250 272 236 256 235 225 270 239 260 283 249 244 271 262 296 274 264 294 242 294 263 260 261 261 282 269 263 234 257 268 269 261 246 265 250 247 282 246 271 285 266 215 269 232 301 228 250 247 248 262 234 272 241 248 239 242 261 245 225 263 233 211 230 223 239 225 216 201 235 236 231 206 227 226 259 226 221 209 199 224 230 228 219 245 208 215 232 188 196 205 256 214 205 231 219 220 211 233 222 222 205 234 213 226 240 205 235 212 231 232 239 228 191 179 220 232 245 200 223 242 214 231 201 218 197 237 239 217 239 260 233 225 234 213 236 239 235 233 248 215 272 186 239 222 241 235 233 219 223 242 218 204 221 212 206 221 214 204 172 231 219 199 201 205 218 203 181 187 192 188 223 207 207 166 173 197 179 199 190 185 171 180 171 198 181 171 164 157 164 177 172 160 166 176 161 158 152 150 164 149 143 138 160 150 186 175 135 150 150 155 148 158 162 141 142 169 146 135 127 164 127 119 153 143 122 127 133 126 128 121 129 129 123 136 130 138 125 127 141 115 130 129 128 123 130 130 109 127 113 148 125 130 113 111 122 118 142 119 134 138 105 128 129 119 119 106 118 142 141 127 105 124 115 112 126 137 117 136 137 127 136</intensities>
			</dataPoints>
		</scan>
	</xrdMeasurement>
</xrdMeasurements>
