<?xml version="1.0" encoding="UTF-8"?>
<xrdMeasurements xmlns="http://www.xrdml.com/XRDMeasurement/1.7" xmlns:xsi="http://www.w3.org/2001/XMLSchema-instance" xsi:schemaLocation="http://www.xrdml.com/XRDMeasurement/1.7 http://www.xrdml.com/XRDMeasurement/1.7/XRDMeasurement.xsd" status="Completed">
	<comment>
		<entry>Configuration=Conf. Reflection-transmission spinner, Owner=User-1, Creation date=2/28/2018 8:43:02 AM</entry>
		<entry>Goniometer=Theta/Theta; Minimum step size 2Theta:0.0001; Minimum step size Omega:0.0001</entry>
		<entry>Sample stage=Reflection-transmission spinner; Minimum step size Phi:0.1</entry>
		<entry>Diffractometer system=EMPYREAN</entry>
		<entry>Measurement program=C:\PANalytical\Data Collector\Programs\sample-1.xrdmp, Identifier={BB6687EE-8248-4E06-B0C7-67735DEB5D7E}</entry>
		<entry>Batch program=C:\PANalytical\Data Collector\Programs\P6.xrdmp, Identifier={7BD5230E-A2B7-4B30-ABCA-6DDD4F314F6E}</entry>
	</comment>
	<sample type="To be analyzed">
		<id></id>
		<name></name>
		<preparedBy></preparedBy>
	</sample>
	<xrdMeasurement measurementType="Scan" status="Completed" sampleMode="Reflection">
		<comment>
			<entry>PHD Lower Level = 4.02 (keV), PHD Upper Level = 11.27 (keV)</entry>
		</comment>
		<usedWavelength intended="K-Alpha 1">
			<kAlpha1 unit="Angstrom">1.5405980</kAlpha1>
			<kAlpha2 unit="Angstrom">1.5444260</kAlpha2>
			<kBeta unit="Angstrom">1.3922500</kBeta>
			<ratioKAlpha2KAlpha1>0.5000</ratioKAlpha2KAlpha1>
		</usedWavelength>
		<incidentBeamPath>
			<radius unit="mm">240.00</radius>
			<xRayTube id="1010048" name="Empyrean Cu LFF HR (9430 033 7310x) DK427586">
				<tension unit="kV">40.0</tension>
				<current unit="mA">40.0</current>
				<anodeMaterial>Cu</anodeMaterial>
				<focus type="Line">
					<length unit="mm">12.0</length>
					<width unit="mm">0.4</width>
					<takeOffAngle unit="deg">4.4</takeOffAngle>
				</focus>
			</xRayTube>
			<xRayMirror id="27020009" name="Bragg-Brentano HD" hybrid="false">
				<crystal type="Graded" shape="Flat">BB/HD</crystal>
				<acceptanceAngle unit="deg">0.800</acceptanceAngle>
				<length unit="mm">55.3</length>
			</xRayMirror>
			<sollerSlit id="21010002" name="Soller slits 0.04 rad.">
				<opening unit="rad">0.0400</opening>
			</sollerSlit>
			<mask id="22030009" name="Fixed mask 10 mm">
				<width unit="mm">10.00</width>
			</mask>
			<antiScatterSlit id="22010003" name="Fixed slit 1°" xsi:type="fixedAntiScatterSlitType">
				<height unit="mm">1.52</height>
			</antiScatterSlit>
			<divergenceSlit id="22010005" name="Fixed slit 1/4°" xsi:type="fixedDivergenceSlitType">
				<distanceToSample unit="mm">140.00</distanceToSample>
				<height unit="mm">0.38</height>
			</divergenceSlit>
		</incidentBeamPath>
		<diffractedBeamPath>
			<radius unit="mm">240.00</radius>
			<antiScatterSlit id="22090010" name="AS slit 8.0 mm (PIXcel)" xsi:type="fixedAntiScatterSlitType">
				<height unit="mm">8.00</height>
			</antiScatterSlit>
			<sollerSlit id="21020003" name="Large Soller slits 0.04 rad.">
				<opening unit="rad">0.0400</opening>
			</sollerSlit>
			<detector id="7010019" name="PIXcel1D-Medipix3 detector" xsi:type="rtmsDetectorType">
				<phd unit="%">
					<lowerLevel>25.0</lowerLevel>
					<upperLevel>70.0</upperLevel>
				</phd>
				<mode>Scanning</mode>
				<activeLength unit="deg">3.3482</activeLength>
			</detector>
		</diffractedBeamPath>
		<scan appendNumber="0" mode="Continuous" scanAxis="Gonio" status="Completed">
			<header>
				<startTimeStamp>2025-12-26T13:25:58+08:00</startTimeStamp>
				<endTimeStamp>2025-12-26T13:37:27+08:00</endTimeStamp>
				<author>
					<name>User</name>
				</author>
				<source>
					<applicationSoftware version="5.5a">Data Collector</applicationSoftware>
					<instrumentControlSoftware version="7.9j 20171025">EMPYREAN</instrumentControlSoftware>
					<instrumentID>0000000011214615</instrumentID>
				</source>
			</header>
			<dataPoints>
				<positions axis="2Theta" unit="deg">
					<startPosition>6.00558257</startPosition>
					<endPosition>75.99655438</endPosition>
				</positions>
				<positions axis="Omega" unit="deg">
					<startPosition>3.00279129</startPosition>
					<endPosition>37.99827719</endPosition>
				</positions>
				<positions axis="Phi" unit="deg">
					<commonPosition>0.0</commonPosition>
				</positions>
				<commonCountingTime unit="seconds">13.770</commonCountingTime>
				<intensities unit="counts">560 557 564 534 536 523 544 554 547 527 516 516 519 522 500 537 538 572 567 543 524 494 554 550 508 513 539 487 530 534 541 546 514 524 529 505 504 491 509 514 528 536 515 499 521 514 488 478 522 563 509 542 543 484 506 517 496 508 535 537 537 507 486 546 490 535 561 507 506 466 567 519 511 503 539 522 483 526 501 525 488 489 496 467 539 546 533 503 538 508 488 489 519 530 457 523 487 519 491 527 547 505 483 496 484 503 505 492 494 487 473 500 522 504 493 507 481 483 475 482 494 490 512 492 443 490 483 536 484 517 449 484 524 505 503 477 464 512 485 492 497 478 501 475 483 469 464 497 499 500 477 485 470 496 504 496 485 501 476 471 467 459 480 516 460 484 511 467 444 473 481 498 516 466 452 470 484 496 490 507 467 470 486 473 496 489 490 476 481 472 483 472 485 499 458 447 461 449 480 484 507 502 464 471 459 472 500 469 490 445 479 460 469 480 484 501 513 450 463 449 506 490 434 496 432 456 487 476 447 471 480 447 478 471 483 483 477 453 444 478 524 462 489 425 456 470 482 426 468 484 462 501 466 476 449 439 455 447 473 469 449 465 434 492 440 452 431 470 488 452 476 463 472 447 482 453 443 453 468 471 442 461 452 442 445 472 442 439 454 468 453 440 458 454 469 481 427 467 444 468 496 450 448 434 454 451 485 442 467 406 459 444 451 417 450 423 470 432 456 463 475 445 452 479 432 454 463 440 418 441 447 467 468 471 471 465 452 470 450 445 417 461 430 489 462 475 448 439 438 452 444 427 427 465 437 426 416 441 431 454 450 444 422 479 429 466 454 465 440 417 446 462 487 451 466 409 467 452 434 475 454 449 451 423 465 428 437 468 434 469 475 412 433 414 444 456 442 419 441 446 444 451 419 425 445 419 447 450 428 436 431 407 458 437 464 477 410 422 437 444 469 426 477 462 486 433 456 456 449 469 446 444 448 445 470 452 436 414 438 411 443 442 446 440 454 497 421 472 445 474 405 434 414 447 445 428 406 407 426 420 409 432 445 442 435 440 412 441 446 459 419 443 393 438 444 440 465 425 433 457 472 417 467 401 429 400 399 439 425 431 434 437 433 457 451 437 407 407 418 443 414 436 394 451 426 416 419 435 435 422 430 419 405 434 435 431 418 442 430 438 400 445 381 466 435 449 459 433 439 411 433 397 395 424 450 395 435 422 418 409 412 413 453 394 433 433 419 424 386 421 411 377 459 385 408 417 396 448 420 406 430 405 397 425 404 394 421 429 448 453 420 421 398 462 453 419 391 410 418 435 391 409 406 386 429 429 404 419 406 397 445 410 431 423 425 435 401 423 411 406 407 376 433 446 411 406 447 415 394 414 417 391 420 408 427 435 423 390 440 429 429 412 387 398 401 404 434 377 385 421 414 434 422 432 450 408 398 388 401 381 433 448 423 420 404 400 416 395 424 447 365 449 392 386 421 380 387 394 379 383 431 425 372 398 394 385 363 354 414 356 429 394 375 411 376 429 407 417 388 392 405 403 397 378 392 395 413 415 410 402 427 368 399 429 416 435 388 406 394 425 390 413 388 409 362 386 375 357 368 429 371 437 388 399 398 404 400 400 362 395 378 404 373 406 397 410 380 347 380 390 395 397 389 374 372 374 453 416 384 406 393 418 393 406 392 365 407 386 391 383 388 329 373 380 405 390 429 400 351 374 373 399 387 419 404 397 406 375 417 379 380 367 414 359 375 402 389 399 373 380 360 356 398 399 402 389 386 348 420 378 426 388 383 392 394 361 386 381 415 375 407 375 363 390 409 340 355 402 372 413 369 386 410 375 407 355 378 381 368 391 403 392 387 405 358 380 384 391 369 403 439 402 381 368 407 369 399 409 407 359 402 367 350 403 352 408 352 379 373 351 372 370 390 384 346 363 381 382 389 387 376 365 341 416 341 356 379 401 374 373 339 361 399 366 361 355 388 362 400 384 341 359 356 383 369 354 369 336 369 339 385 392 409 359 387 360 357 382 367 351 345 358 374 378 381 344 379 381 371 394 349 365 380 369 406 354 349 349 339 370 395 316 378 370 351 371 370 361 365 363 368 338 350 366 333 335 355 373 366 348 342 328 340 359 324 354 377 359 385 349 338 330 378 349 380 359 375 335 333 377 362 360 373 373 344 346 341 354 312 387 362 337 363 377 369 367 343 376 374 334 365 341 376 340 364 355 354 370 363 341 383 320 366 372 345 350 379 399 350 375 362 331 348 347 364 338 324 360 352 331 319 327 348 349 344 347 381 323 335 353 371 333 331 347 355 356 338 345 348 365 332 328 342 335 347 333 356 338 322 396 352 356 343 324 344 339 362 343 344 350 373 357 362 329 327 350 372 362 339 355 356 345 356 336 325 335 328 340 338 334 328 362 327 325 308 352 369 381 331 314 318 316 341 318 337 319 363 320 327 328 335 317 319 382 337 323 361 342 338 344 324 341 337 350 334 326 333 342 330 343 371 344 334 327 300 339 371 307 350 326 340 355 321 351 341 346 304 323 329 333 337 350 327 350 323 346 328 351 352 341 351 337 328 329 339 314 306 322 343 292 343 312 345 352 318 332 318 340 313 332 366 338 305 361 331 323 337 310 327 342 352 344 317 306 295 327 301 320 361 317 305 308 331 292 340 334 373 340 347 280 351 315 317 353 344 327 353 318 337 312 298 301 355 327 314 314 349 302 315 327 332 329 300 357 350 301 331 321 326 307 297 339 307 351 320 309 312 291 334 351 310 322 298 304 331 296 317 342 331 304 331 306 315 333 308 350 298 298 304 306 322 320 320 308 327 304 308 320 299 337 331 301 314 360 327 316 304 315 308 330 299 331 301 324 302 293 298 320 306 332 315 295 301 327 309 306 341 311 327 317 306 302 328 304 331 304 290 332 318 302 320 299 324 302 328 315 331 309 308 321 296 325 318 335 320 294 284 317 299 302 303 314 286 289 301 324 307 346 287 300 321 317 339 308 327 343 321 341 323 327 307 300 333 289 326 335 307 316 323 312 356 293 292 295 297 305 298 308 312 293 326 300 311 305 310 315 301 300 320 296 303 326 304 306 285 315 300 316 313 330 308 335 289 300 308 361 292 304 289 312 330 305 311 335 304 319 297 302 321 316 311 317 307 317 319 324 287 312 307 320 336 288 330 307 317 289 292 284 318 311 322 326 313 325 321 327 322 304 281 308 298 307 304 313 319 294 307 289 336 324 300 288 301 311 317 349 293 302 351 294 316 325 324 305 312 285 325 297 304 298 296 307 290 308 305 287 324 308 321 276 290 309 316 297 314 333 292 322 303 289 309 297 293 301 303 318 324 295 286 307 302 273 323 263 315 290 274 325 302 282 332 274 307 327 304 299 319 331 349 290 303 317 308 317 304 321 333 298 312 316 299 256 326 344 260 297 294 284 264 299 287 323 304 290 337 294 321 330 293 323 305 285 304 327 290 277 310 305 294 286 288 283 317 329 281 296 279 319 303 336 321 327 301 292 325 288 302 312 302 308 299 299 317 319 293 311 322 309 306 315 280 318 284 284 301 313 320 307 296 298 300 322 280 290 292 307 277 277 286 306 296 322 292 313 312 299 281 271 304 334 319 296 317 285 311 321 321 302 297 323 298 309 306 303 311 352 315 300 276 299 308 300 328 281 306 317 275 297 296 294 308 314 324 324 291 320 291 273 296 282 322 292 315 286 314 319 305 243 297 288 259 304 277 322 290 292 302 310 311 291 331 289 299 315 284 309 283 311 323 308 294 304 275 313 312 316 286 274 301 294 277 278 307 305 305 294 284 294 287 305 315 308 335 291 321 308 330 296 296 306 281 301 294 296 309 298 283 325 292 322 336 307 293 296 308 281 301 317 293 296 277 272 316 311 297 305 286 310 288 270 310 286 301 276 309 313 319 317 293 326 287 318 317 279 289 318 283 291 329 320 283 315 291 291 292 331 292 328 337 314 317 313 313 291 308 308 295 275 314 293 303 277 337 296 299 295 322 307 314 362 301 291 309 337 311 307 336 339 292 298 296 286 304 325 263 314 348 257 320 316 307 326 291 326 287 301 302 275 321 305 272 311 338 306 330 292 289 325 321 312 317 316 275 300 285 309 296 312 304 304 305 304 282 280 344 289 319 286 335 287 320 348 326 334 299 318 303 346 316 309 313 326 315 325 311 336 305 333 325 342 332 312 313 310 309 297 292 324 321 303 311 322 287 332 316 329 307 329 315 322 329 318 310 305 316 320 349 323 301 335 331 332 319 291 293 316 284 317 334 337 307 333 293 292 330 320 344 298 300 344 358 329 328 335 334 311 330 332 318 341 312 323 327 312 312 317 297 299 327 319 336 318 317 299 347 314 310 279 343 336 315 297 316 304 290 335 314 311 342 336 288 330 293 349 332 347 335 307 301 342 318 330 341 362 301 329 329 350 299 323 318 328 306 323 302 327 283 316 322 301 337 292 327 338 321 309 359 306 327 364 307 353 291 343 325 325 308 342 317 309 349 336 304 322 321 333 299 333 328 331 298 355 333 312 282 338 302 318 304 335 351 337 321 306 327 329 344 343 332 343 285 303 317 314 366 324 351 314 316 319 317 340 296 338 353 339 343 327 315 337 320 316 346 302 316 341 357 316 339 352 314 351 345 341 348 333 293 340 291 335 313 348 374 341 362 342 338 340 318 333 337 319 309 341 299 337 316 322 332 337 347 327 309 353 327 348 326 358 332 332 315 330 355 338 320 312 316 319 308 364 347 313 299 350 339 339 325 341 316 368 335 347 326 327 336 321 365 362 355 360 325 343 341 356 320 330 326 363 337 326 351 331 324 350 347 316 335 340 313 328 332 362 346 324 321 344 342 334 332 305 297 328 361 318 330 327 355 343 353 331 313 336 336 348 324 307 339 353 340 336 307 347 360 358 341 350 361 395 343 331 302 325 345 319 319 345 357 332 338 339 349 359 315 327 328 324 356 369 349 298 329 333 324 334 313 325 296 313 292 311 330 365 327 367 316 353 341 366 366 358 379 294 350 348 319 368 320 303 344 327 333 338 363 345 333 339 358 360 337 336 326 329 320 339 320 339 335 299 328 376 316 343 337 328 347 326 340 334 324 349 334 336 337 339 320 342 325 360 353 340 326 359 338 355 363 340 375 290 329 329 348 359 323 331 324 304 376 350 323 376 349 328 347 339 372 347 335 343 319 355 350 317 331 303 329 360 334 344 354 341 325 368 335 332 300 326 363 324 357 358 355 366 326 323 302 334 358 329 340 338 324 337 353 373 314 316 328 330 319 316 328 331 310 313 324 373 341 327 344 349 331 329 336 336 341 365 339 358 320 340 341 329 356 385 305 304 330 357 317 350 316 331 352 328 319 352 351 359 358 380 346 335 294 327 350 358 329 343 324 354 310 330 346 328 344 345 338 331 358 334 342 367 347 315 348 348 320 344 351 335 378 340 362 357 335 327 294 327 328 321 314 341 346 339 358 317 333 339 353 308 331 342 345 337 331 377 328 334 363 319 353 326 335 322 348 339 361 338 324 353 360 333 318 300 370 356 332 318 363 337 338 310 367 334 343 351 337 368 326 361 335 336 340 330 338 329 300 330 357 342 335 339 369 354 338 318 333 319 324 350 328 335 323 347 332 324 339 349 316 350 312 341 321 311 322 337 352 331 372 320 343 334 337 326 333 363 343 340 346 356 340 336 343 374 310 371 319 310 382 319 306 386 391 315 342 347 358 345 313 299 290 325 328 350 354 348 328 343 369 353 310 329 326 333 354 340 329 333 305 332 347 332 335 329 309 348 352 344 310 334 313 331 345 346 328 327 323 320 341 329 341 326 341 344 324 328 360 334 327 318 334 325 329 358 316 310 322 337 375 349 332 333 319 351 353 322 331 327 354 328 322 332 339 306 338 339 336 341 327 331 314 334 349 328 293 343 303 365 339 337 346 365 312 372 335 303 340 333 358 332 325 333 317 336 339 322 320 315 342 330 367 345 337 332 339 342 308 300 331 328 349 357 340 325 346 369 349 315 337 361 343 338 387 330 391 322 321 353 317 317 349 333 342 350 323 333 334 328 316 350 326 339 317 364 325 342 320 324 326 318 310 296 344 332 340 316 342 330 326 343 332 334 352 341 301 284 325 328 352 333 336 338 352 338 299 302 330 292 311 345 349 343 302 323 307 327 324 335 316 320 338 355 323 352 338 326 342 346 300 352 326 340 301 339 312 302 305 299 320 320 346 322 321 311 363 321 332 326 295 328 291 335 327 326 336 358 320 335 332 310 351 330 295 316 326 349 333 309 328 336 350 303 335 323 347 306 331 326 321 327 318 300 335 322 352 302 351 319 332 350 312 349 375 311 351 313 343 317 334 325 364 308 343 322 278 316 338 278 344 349 306 367 314 312 310 334 316 318 315 292 354 326 301 293 342 314 347 328 311 339 348 335 327 308 318 329 326 341 341 340 322 318 354 310 317 334 321 318 269 325 262 322 315 320 360 318 315 318 303 318 309 343 275 346 321 352 349 339 320 308 309 327 296 306 328 278 305 324 307 300 335 287 355 305 305 319 292 328 329 318 277 335 332 292 352 314 325 331 332 322 314 331 307 333 317 293 317 289 338 315 295 326 334 308 319 341 331 346 313 314 300 323 318 297 308 324 324 292 308 287 358 321 318 288 321 348 311 282 314 328 312 349 293 289 331 301 311 341 323 330 318 353 321 376 297 297 347 343 317 319 309 306 312 323 345 321 341 341 309 297 338 324 324 320 301 268 292 322 315 314 335 305 327 319 330 317 338 319 300 291 323 300 315 321 309 351 348 331 278 307 295 306 317 319 338 329 306 305 298 293 285 339 304 329 328 323 328 289 310 347 333 325 286 300 342 328 287 314 341 346 307 306 302 304 322 274 350 323 300 288 279 320 302 299 289 313 312 301 300 341 307 317 304 317 351 312 322 328 310 296 299 285 286 310 308 310 329 327 316 321 333 298 334 318 333 311 294 323 316 314 318 303 321 331 303 320 333 322 295 319 329 318 288 358 299 286 325 303 323 302 331 300 313 311 323 295 292 305 314 294 318 302 314 305 291 318 301 308 289 318 303 292 326 359 325 316 312 322 314 289 304 289 294 320 303 315 351 328 271 305 314 288 300 338 287 324 341 310 316 314 313 318 322 349 313 312 303 311 323 290 291 296 315 306 317 318 340 325 303 296 302 325 323 329 312 310 317 305 329 294 311 312 313 303 298 277 323 319 314 299 310 307 307 310 313 305 297 313 336 269 313 307 307 270 295 309 321 298 289 332 288 328 323 309 335 355 311 305 283 319 317 286 298 324 350 287 285 304 315 329 294 291 338 333 308 322 315 325 276 289 280 312 303 298 289 279 293 331 289 300 307 307 311 319 334 320 308 296 285 299 304 280 312 307 315 304 334 316 334 307 328 302 320 306 299 287 267 332 291 308 284 335 308 295 299 277 291 317 278 306 316 289 283 308 258 322 326 277 321 310 318 261 286 285 318 304 303 328 285 329 321 324 294 272 312 307 300 303 300 297 281 350 311 306 314 274 299 315 319 301 306 301 315 321 267 337 296 313 306 342 306 296 321 309 317 303 324 315 326 299 300 309 293 289 309 327 312 321 336 261 306 337 302 290 339 321 280 327 292 309 291 317 285 350 263 294 332 315 309 307 304 295 281 331 297 291 278 287 302 273 271 321 301 310 296 328 293 273 291 295 297 303 321 324 292 308 312 333 311 317 327 319 294 318 324 296 317 280 321 304 304 288 296 283 305 299 303 289 284 302 315 295 300 285 293 299 300 282 301 284 298 314 278 309 306 317 289 342 286 294 319 270 302 302 301 316 297 286 325 318 330 295 316 320 293 319 309 246 305 300 292 302 328 286 305 316 298 289 312 320 320 330 303 319 337 289 312 304 308 303 321 321 279 320 286 317 277 291 292 320 312 276 307 322 303 312 293 335 291 269 284 303 294 276 298 296 314 302 326 312 295 281 295 285 298 303 295 312 312 327 305 321 314 309 325 305 303 305 291 298 302 289 306 326 295 308 328 279 313 301 298 278 328 288 317 297 296 322 335 269 310 329 282 313 310 278 296 293 311 304 282 298 298 306 280 307 316 309 272 295 298 305 305 297 281 324 326 273 290 290 297 270 295 300 302 306 285 298 336 297 295 311 280 266 302 276 275 284 269 304 261 305 320 312 279 283 281 307 297 277 306 299 326 313 276 303 308 286 292 291 283 294 288 318 307 278 296 273 296 282 306 294 295 309 288 279 290 283 306 302 301 320 312 310 273 306 268 304 303 330 318 295 310 301 306 279 268 301 299 307 274 311 314 318 286 310 288 307 286 305 309 305 348 290 289 273 263 295 304 268 282 265 335 307 286 297 314 316 286 264 293 287 236 313 287 308 300 335 292 317 327 315 325 281 320 305 285 296 308 307 329 332 307 313 291 299 284 302 275 323 296 285 313 280 275 291 299 266 318 330 268 337 273 300 317 314 299 335 292 293 318 324 317 324 289 317 311 288 280 284 275 314 321 314 269 346 277 289 297 331 283 298 320 266 304 297 302 301 278 300 268 265 308 295 297 271 290 302 325 337 283 315 299 303 318 293 293 326 309 295 320 311 304 307 309 317 300 287 315 334 317 298 283 325 304 268 294 318 298 307 325 304 317 289 278 337 297 307 296 350 318 314 298 299 306 304 287 295 277 268 313 291 302 305 324 299 311 328 305 337 309 300 309 344 316 306 312 311 303 278 304 332 315 290 319 295 278 304 301 314 305 331 341 332 300 295 320 273 313 304 297 297 320 318 285 315 307 301 302 317 294 320 284 302 281 339 323 289 298 305 322 316 290 336 301 331 298 307 296 272 300 275 323 294 304 340 273 284 344 303 299 348 294 337 309 275 295 326 302 288 312 290 311 317 318 290 322 314 301 315 295 313 297 310 275 298 325 286 292 281 297 354 307 297 337 292 294 313 294 309 297 328 319 317 294 269 305 281 333 292 311 283 307 330 310 276 323 303 280 337 323 293 338 306 310 319 307 307 305 279 335 334 320 338 326 313 302 294 307 307 318 301 286 325 292 344 276 287 286 329 313 358 298 276 294 274 314 322 288 314 299 309 284 305 295 307 335 321 304 275 313 296 321 321 290 270 326 313 294 320 304 281 288 301 307 297 332 314 283 328 296 279 278 333 306 280 347 305 293 304 281 278 308 306 282 280 275 298 280 296 285 323 284 307 275 300 324 296 298 298 296 286 276 278 307 269 304 292 312 296 314 282 279 296 281 286 298 295 317 303 321 290 284 278 307 299 298 289 305 267 293 309 320 282 294 280 298 287 316 299 277 316 312 314 296 326 288 283 310 290 298 293 278 321 276 295 266 309 306 261 293 297 307 284 278 304 266 292 297 272 307 276 298 336 284 299 250 280 309 286 306 279 279 298 275 271 271 314 291 348 303 288 312 288 318 308 323 300 268 307 278 274 262 289 327 304 268 285 292 288 304 314 289 309 288 307 294 326 275 294 260 277 262 300 283 267 298 266 276 297 306 304 241 297 310 309 312 271 287 293 309 282 257 279 300 282 290 304 277 283 295 283 285 296 303 320 280 295 309 286 320 325 295 307 302 284 289 305 296 290 308 286 313 309 283 269 307 288 277 273 279 301 275 268 327 312 301 305 280 289 313 291 282 287 302 280 295 274 276 310 297 276 278 275 274 291 278 314 294 268 298 278 287 285 292 309 278 293 284 278 268 297 304 292 303 266 297 277 279 287 274 292 269 297 330 314 301 300 324 290 262 270 266 326 267 267 286 296 291 312 297 299 270 319 288 256 293 300 301 332 277 315 289 293 283 331 292 272 298 311 327 279 290 292 265 286 275 297 316 272 285 303 265 308 316 291 298 300 282 307 319 293 284 281 274 277 281 315 308 294 322 296 327 296 280 294 264 274 280 310 313 304 287 295 289 314 282 320 275 266 307 281 286 278 266 304 308 285 283 284 310 288 282 300 263 271 300 280 280 300 290 265 311 295 265 270 320 266 316 312 300 322 313 279 294 277 297 290 333 308 303 301 336 297 273 286 291 289 294 300 268 284 325 291 292 275 290 288 304 284 273 295 298 303 298 293 300 278 329 271 350 322 302 319 318 293 267 286 305 265 281 298 299 325 314 300 301 331 307 306 305 290 270 268 297 278 274 294 329 301 306 271 268 292 297 279 304 316 328 306 299 304 321 282 302 284 304 330 308 289 316 294 290 277 289 317 306 318 296 291 301 338 316 301 281 304 303 303 276 280 294 308 290 289 289 296 335 300 292 324 325 307 286 303 278 297 305 306 290 318 282 290 306 306 303 297 315 288 310 292 310 285 322 296 308 302 325 318 266 302 331 300 275 304 296 298 301 301 309 301 337 300 285 290 301 309 281 303 307 270 311 278 297 313 312 344 315 321 297 339 312 274 320 305 304 315 316 318 327 276 298 313 301 341 320 290 332 332 316 310 324 319 314 302 313 295 320 292 330 287 340 301 306 315 315 304 353 335 326 297 331 350 316 315 337 307 305 302 324 323 321 314 321 340 306 314 310 302 326 304 340 324 318 330 318 329 299 306 313 289 330 298 307 316 310 333 297 329 326 327 343 343 325 293 330 310 303 297 329 314 312 354 341 340 321 305 288 359 326 321 319 331 322 344 320 311 291 316 331 325 344 324 343 302 340 327 300 319 338 326 315 307 330 325 322 316 337 314 310 326 326 313 322 331 282 333 347 306 310 314 345 328 336 328 308 305 295 348 316 312 346 294 292 322 308 278 307 309 324 304 336 329 300 337 357 307 329 325 313 313 318 354 300 308 339 325 336 301 295 284 340 307 337 332 296 321 328 311 342 282 331 336 324 319 325 327 301 304 339 297 309 294 289 301 303 299 333 321 322 301 287 306 278 314 288 291 276 289 305 313 316 281 281 298 321 299 301 343 309 337 265 282 323 281 342 298 296 295 317 299 302 282 305 299 260 316 285 281 283 288 291 298 298 288 307 276 293 292 265 283 293 292 300 290 295 297 300 298 317 250 306 248 295 269 289 297 257 269 275 244 263 282 272 300 300 311 305 251 275 278 246 307 306 248 275 273 268 220 275 264 313 265 289 245 275 272 268 238 260 233 244 291 275 266 271 270 321 267 258 277 256 260 292 248 278 294 291 276 263 278 286 249 245 263 268 272 273 257 319 310 287 269 278 285 291 258 274 267 274 309 244 273 273 280 258 259 295 249 215 235 268 245 281 274 267 278 274 277 228 245 260 295 262 237 295 241 275 225 267 277 242 328 247 242 258 259 258 303 228 267 262 284 250 283 235 250 249 261 280 264 225 258 267 235 257 261 263 239 275 262 239 245 257 271 280 276 293 268 283 286 278 263 262 274 259 269 272 236 268 281 266 258 248 245 243 275 288 247 279 244 248 282 282 272 261 289 308 296 257 260 264 282 236 250 305 260 290 271 249 243 263 278 220 242 236 298 279 268 258 233 271 293 272 271 248 245 286 262 275 269 303 273 256 242 305 275 260 274 261 244 269 287 245 258 300 248 266 235 267 265 273 234 239 287 262 243 258 258 237 257 266 247 257 295 244 243 269 276 270 272 231 284 265 227 242 277 263 248 260 225 245 242 264 272 248 258 225 215 257 266 241 273 265 279 290 261 233 263 227 235 267 262 268 283 261 245 243 260 269 256 273 239 244 256 244 233 295 246 261 206 247 233 245 238 220 263 230 249 231 213 237 246 233 232 246 259 234 279 229 248 229 236 244 244 222 248 259 227 249 227 251 232 234 246 246 275 242 229 217 262 263 243 250 232 244 207 242 224 245 238 240 240 257 238 244 219 239 225 260 215 199 239 242 210 268 216 211 256 217 227 248 226 233 230 256 246 217 215 247 220 233 221 225 233 230 241 199 218 203 236 247 220 216 235 230 230 237 241 232 222 229 260 214 239 266 212 223 234 264 228 215 240 236 245 205 200 224 218 228 228 230 245 206 208 239 220 241 218 196 219 191 241 237 209 240 222 235 229 226 211 223 223 211 232 211 196 210 222 197 243 239 203 209 249 218 220 221 217 210 187 205 222 245 214 237 223 203 215 188 211 215 234 211 239 238 227 211 211 232 220 199 240 222 210 203 218 191 250 178 237 217 244 225 240 205 259 230 226 226 200 238 210 225 217 246 206 233 216 237 233 220 211 178 214 218 227 221 206 215 232 196 233 224 230 216 226 223 203 203 222 214 231 229 196 231 201 229 219 210 192 213 212 203 226 229 211 206 209 218 238 209 195 217 208 206 186 201 220 220 220 212 218 216 226 218 213 217 195 215 242 227 213 248 240 230 224 208 200 215 232 216 215 197 204 241 189 229 221 212 228 239 179 206 194 212 223 225 204 227 218 214 221 248 214 230 208 217 222 203 220 225 208 186 230 204 222 222 197 222 214 194 221 220 205 229 209 224 209 212 212 215 219 195 216 202 217 190 191 217 229 220 216 206 199 192 215 220 224 229 217 219 229 235 181 210 189 223 224 234 214 201 216 211 204 210 215 208 211 213 211 231 217 229 240 208 209 214 198 214 220 205 223 196 242 183 199 203 218 208 207 221 236 244 196 229 219 176 237 183 186 216 207 203 215 213 201 231 219 227 224 216 224 184 206 221 216 223 215 213 225 211 217 206 219 222 224 206 223 194 198 185 218 190 242 199 221 192 199 215 232 224 248 224 229 214 209 257 209 233 222 201 210 206 204 221 213 212 234 256 201 213 248 216 193 230 202 264 235 214 223 237 204 218 221 210 247 244 241 215 239 201 194 250 195 224 227 214 230 213 211 215 218 236 228 209 261 234 234 222 222 201 228 218 180 225 197 247 194 204 194 224 218 216 215 194 220 207 211 210 214 210 217 226 222 201 234 188 225 236 240 218 202 219 218 236 223 181 207 228 214 225 178 223 237 225 219 238 206 247 248 207 226 234 227 218 241 228 221 248 228 229 229 195 183 210 226 231 227 216 207 241 224 243 231 242 205 236 218 230 229 227 217 245 226 236 235 246 268 200 267 209 222 237 218 257 244 232 229 219 258 211 240 212 236 250 233 239 236 239 227 222 238 241 259 250 231 238 246 240 248 238 238 220 242 226 234 223 236 242 297 226 272 251 259 232 272 266 262 280 273 266 284 284 286 271 263 288 318 292 329 304 266 321 292 295 278 261 313 306 295 309 302 308 295 282 277 296 281 292 284 273 294 273 286 304 277 300 276 260 276 275 306 282 283 291 265 274 285 260 265 279 282 309 268 276 246 276 283 277 284 272 249 276 290 287 259 272 274 270 262 242 263 303 247 270 265 234 271 283 245 278 275 262 267 246 230 281 281 262 273 282 275 257 282 294 235 264 261 288 269 297 270 274 282 267 295 268 309 271 281 276 287 298 302 283 259 282 271 305 284 294 274 276 275 316 299 306 306 284 298 305 307 325 256 305 293 303 280 317 302 303 302 270 275 323 304 314 286 304 267 313 325 318 298 293 249 322 285 285 305 303 301 319 282 284 308 284 318 300 293 314 341 300 335 326 314 294 312 319 321 322 271 325 329 322 296 336 300 297 328 311 301 331 301 314 327 305 298 333 327 304 294 299 293 290 349 331 317 328 295 309 344 283 332 313 320 305 335 313 337 325 295 327 299 331 314 312 310 314 285 287 357 326 313 318 310 280 304 279 301 275 309 301 320 313 316 292 287 305 314 310 314 304 323 291 299 337 263 294 313 316 302 282 304 325 306 322 309 311 307 282 288 280 315 300 280 263 271 270 294 318 287 287 310 306 296 285 305 293 288 271 299 278 330 268 283 283 289 245 310 299 258 269 272 290 262 261 271 293 296 280 275 297 271 269 290 245 273 292 277 266 271 296 267 267 274 240 285 230 250 273 275 265 278 270 246 278 302 260 266 263 268 240 271 239 263 263 268 256 209 226 247 256 260 247 224 223 240 228 218 256 228 263 227 245 232 264 229 222 258 243 251 225 247 269 190 261 230 245 221 216 227 224 217 210 210 227 199 256 226 231 226 244 223 276 213 241 192 233 227 220 205 248 191 223 195 216 213 209 216 226 217 214 219 199 212 209 262 216 217 223 229 241 217 191 213 227 205 204 210 211 237 228 233 185 206 206 206 222 216 219 215 194 213 195 246 202 212 225 203 219 192 201 198 196 220 197 204 241 224 186 225 195 202 191 212 206 196 175 192 190 212 205 190 185 218 194 206 220 205 202 201 214 203 213 183 179 186 208 194 182 188 201 204 211 199 202 188 213 194 183 211 202 197 191 190 174 202 194 214 182 191 163 192 198 225 195 213 189 195 218 204 173 193 188 206 193 184 194 187 194 179 177 210 191 194 190 172 191 178 191 175 174 195 186 185 186 192 183 174 201 171 187 205 183 205 182 194 202 177 175 189 212 190 167 186 196 213 191 207 178 203 186 200 182 188 210 183 159 187 195 181 171 199 182 173 171 174 196 154 161 184 194 201 171 186 157 192 192 189 192 187 156 187 178 169 191 177 187 192 180 157 202 174 182 164 203 195 185 179 183 203 175 163 214 192 152 171 182 174 164 172 177 201 176 181 191 177 175 202 199 164 178 175 177 172 167 149 195 208 187 150 188 176 179 166 189 182 160 184 151 155 197 179 194 165 169 179 173 163 203 177 211 167 160 185 166 188 177 175 179 179 164 155 200 147 173 179 178 198 181 173 161 168 188 151 187 183 161 174 173 183 164 176 189 189 187 163 184 167 179 174 173 185 183 201 132 163 188 173 195 181 167 183 185 180 151 169 198 205 210 188 175 185 135 162 147 164 153 166 171 168 163 164 168 166 181 152 208 176 179 168 169 169 168 148 174 176 166 167 148 182 176 162 163 157 179 170 191 195 176 152 163 149 186 170 167 185 169 178 174 173 173 143 197 149 162 171 185 165 151 166 182 160 181 167 162 179 158 169 184 165 164 187 156 179 173 176 161 147 153 148 172 185 176 178 151 195 165 160 177 149 142 161 176 170 157 184 183 152 175 167 181 171 164 175 158 195 159 162 175 162 183 164 156 170 159 161 174 175 165 182 192 169 175 161 148 174 158 162 181 159 202 159 161 172 167 194 185 169 156 168 190 173 162 171 155 159 188 174 148 173 164 150 164 179 154 158 157 183 165 159 155 173 189 163 170 165 155 173 178 163 168 158 168 164 191 153 169 189 172 181 180 159 179 180 157 178 180 173 179 175 159 156 160 168 170 166 169 171 147 184 149 158 185 179 170 168 173 162 167 187 139 174 178 162 175 187 176 170 156 193 160 205 181 174 173 177 164 149 168 164 196 139 178 175 163 161 179 161 158 158 164 163 168 174 172 162 182 186 163 165 171 174 159 156 170 155 164 163 169 175 128 186 147 161 169 166 163 172 172 149 154 146 172 156 178 153 150 173 158 158 161 156 161 156 186 154 163 163 172 158 160 163 184 187 135 167 151 178 153 157 176 155 177 162 179 162 180 182 172 176 167 157 171 149 164 148 180 162 168 171 168 148 173 166 179 162 157 169 182 168 202 168 161 135 162 162 174 166 173 162 168 177 157 172 156 170 176 156 148 184 168 153 171 169 160 161 169 158 168 158 171 143 159 180 168 156 164 151 173 159 188 188 155 156 149 163 169 156 187 142 179 177 147 174 164 152 183 169 163 182 136 190 158 156 152 150 163 153 179 174 163 186 147 143 141 149 164 197 178 163 176 149 172 175 180 154 148 167 181 161 153 151 168 155 161 176 158 147 147 178 166 152 153 145 177 179 161 135 156 156 163 161 172 161 153 189 164 181 156 182 156 168 171 155 173 157 138 149 171 154 165 151 166 166 166 185 173 161 173 139 178 171 156 159 170 154 191 148 176 192 173 175 159 172 172 186 179 157 159 179 174 153 181 170 168 171 153 177 153 147 146 167 148 166 138 171 169 177 158 158 145 185 179 162 155 170 165 170 167 151 170 161 140 179 157 174 185 174 165 174 190 164 149 156 161 160 161 171 169 154 177 155 159 161 166 169 163 172 160 142 159 170 167 162 169 164 163 168 174 152 147 155 156 157 171 193 145 180 159 156 169 184 191 157 164 194 157 156 155 169 178 173 169 176 179 154 170 175 195 157 157 165 161 157 159 152 153 165 155 169 159 177 175 184 169 176 159 155 176 164 170 141 175 143 174 180 169 173 153 160 148 173 165 175 177 168 155 146 183 173 137 162 164 164 149 144 182 154 173 163 164 160 184 177 161 152 167 151 155 157 162 165 153 171 162 176 154 163 176 188 156 142 187 175 167 159 148 175 157 171 159 156 144 185 177 155 166 148 194 173 175 159 194 177 154 148 153 177 170 164 161 168 177 170 158 159 155 179 156 170 154 179 163 150 153 172 160 161 198 168 151 178 174 168 142 171 142 158 169 176 166 155 162 167 175 166 163 152 160 157 162 157 164 170 181 185 173 168 163 169 177 170 163 161 179 144 147 153 159 187 147 198 158 162 150 156 176 171 176 159 187 174 161 164 166 164 146 158 181 179 167 153 169 193 151 160 176 168 180 163 178 175 169 186 159 175 165 183 165 172 164 161 157 183 156 155 175 169 166 180 162 197 144 175 169 170 181 159 170 137 184 172 158 149 120 181 174 161 173 154 186 175 160 173 168 186 176 181 164 149 161 175 152 174 171 174 176 169 142 178 160 174 154 185 167 168 172 157 180 172 149 161 146 180 162 166 155 134 154 145 156 165 160 194 149 182 186 159 178 168 174 174 166 155 170 157 160 169 176 176 148 149 169 169 173 153 175 188 198 163 158 180 163 164 182 160 158 176 171 186 161 168 192 158 170 168 176 173 154 168 172 167 176 160 197 178 170 204 177 189 153 163 163 179 150 158 182 175 167 186 172 184 176 176 183 146 182 172 156 184 171 164 175 181 185 170 177 167 168 182 159 168 165 181 199 184 176 161 166 166 164 180 158 162 182 161 181 174 181 155 196 145 149 160 171 164 181 183 171 190 181 170 187 155 188 184 159 177 170 183 185 200 165 181 157 167 183 184 179 157 156 179 176 174 166 177 171 156 156 172 183 172 159 186 160 170 160 172 162 169 179 172 165 148 161 166 179 179 172 169 161 187 155 180 194 194 168 160 168 158 170 149 192 167 184 158 168 197 175 150 189 165 167 183 196 167 153 183 152 175 153 174 183 158 186 179 180 146 179 182 170 168 167 195 148 180 171 156 177 183 181 169 158 148 160 179 169 172 170 167 184 153 169 157 180 179 183 152 176 183 163 160 170 171 167 158 169 161 184 168 172 153 167 177 181 189 180 180 174 200 177 168 161 181 164 175 198 149 172 163 170 194 173 174 189 164 171 173 200 164 186 144 193 150 158 170 178 146 182 190 183 196 169 173 176 155 193 161 184 176 160 175 159 191 181 164 144 188 188 172 149 173 181 170 173 197 164 187 191 184 198 186 166 158 192 177 149 162 189 183 191 158 199 183 191 166 192 174 171 190 199 181 207 170 183 190 170 192 206 185 182 184 173 157 173 182 185 163 178 188 178 159 194 196 185 178 161 168 158 172 182 185 177 158 179 168 165 183 156 176 181 188 199 170 182 169 177 188 202 176 193 192 161 167 206 165 183 174 174 178 208 192 137 174 173 172 170 190 187 199 186 195 183 192 162 185 163 184 187 156 211 174 182 194 194 182 182 161 178 162 184 197 164 167 163 162 187 175 188 186 182 174 166 169 193 179 179 179 199 202 170 192 191 171 183 191 192 169 162 169 192 175 181 171 183 185 195 175 197 177 162 164 181 173 163 172 175 186 192 194 181 181 205 170 162 205 186 184 180 183 159 190 174 173 197 175 207 188 173 182 179 173 175 184 177 191 183 184 179 175 176 184 191 178 151 178 166 185 189 173 161 197 162 200 181 183 171 190 180 158 175 180 185 171 179 176 167 199 157 193 172 188 185 172 186 168 201 184 190 181 190 186 199 185 214 197 179 197 182 205 182 209 174 198 209 186 171 185 185 194 190 174 187 189 204 200 177 186 216 179 186 172 179 165 183 187 219 210 183 193 173 183 171 161 174 166 201 173 192 184 189 196 182 181 200 170 173 176 196 174 209 178 185 182 188 185 211 185 216 197 231 174 190 189 171 172 212 175 183 198 175 182 172 174 184 173 179 175 198 182 181 185 229 190 200 192 171 186 175 178 193 177 181 187 187 174 171 170 179 182 177 184 188 202 189 185 204 192 201 176 185 195 157 211 197 200 200 183 192 173 161 171 197 188 214 172 202 202 206 178 196 190 164 183 184 207 162 208 193 183 187 198 185 200 188 186 182 209 183 220 213 184 197 187 195 169 177 202 213 186 172 190 181 185 172 160 191 189 213 166 180 163 195 225 175 190 207 189 208 172 198 191 196 201 195 204 193 199 172 193 192 201 203 209 186 211 187 172 186 209 202 214 200 193 192 178 214 220 191 189 201 200 184 180 187 183 187 197 201 214 189 196 205 196 196 155 203 181 193 221 177 193 210 194 218 217 212 203 191 171 213 220 211 194 210 229 193 191 211 223 191 192 199 208 195 177 199 208 210 179 191 197 190 222 215 211 210 185 194 199 210 221 188 175 186 184 197 211 203 193 204 205 233 181 198 250 191 206 187 209 211 203 219 204 204 204 219 228 178 212 205 202 180 185 214 216 219 204 217 199 217 210 196 209 207 191 200 244 198 208 186 199 208 220 180 206 212 211 178 219 192 208 198 219 221 212 231 196 189 201 200 211 181 193 223 216 220 210 219 194 196 211 209 212 201 186 238 168 203 204 190 198 216 200 200 205 236 233 203 176 209 210 206 210 221 205 194 204 210 190 215 198 219 219 212 227 210 201 211 182 188 193 213 205 200 246 215 197 200 225 226 208 189 216 213 203 210 209 173 199 231 227 208 208 207 208 235 188 241 205 197 169 220 191 218 180 208 197 203 204 203 224 207 187 235 204 210 210 197 240 197 225 186 189 201 168 216 174 211 192 193 204 201 203 206 196 176 208 204 207 206 215 182 209 193 224 198 216 205 214 184 197 226 217 214 230 202 198 197 226 222 205 203 181 196 160 204 218 199 236 200 172 188 191 219 200 212 212 198 205 184 194 187 183 208 205 201 200 217 207 203 183 197 209 197 194 189 201 194 190 173 195 182 210 196 177 193 210 182 200 208 204 219 224 212 204 186 201 203 222 214 211 200 206 180 194 199 200 198 206 192 190 182 221 194 204 198 179 190 191 192 192 191 173 205 212 184 197 216 217 175 227 210 208 212 198 196 183 172 205 206 205 208 195 201 188 208 195 201 202 201 203 183 209 197 169 200 182 209 203 194 219 186 183 194 215 176 173 203 203 199 206 204 192 181 184 195 201 214 190 197 194 207 193 194 187 199 182 232 207 184 222 213 220 162 198 209 211 190 177 203 208 186 200 200 220 203 186 191 192 221 179 204 212 177 216 177 174 197 202 194 201 208 194 212 184 171 198 184 192 179 203 189 191 229 186 166 183 189 216 203 237 195 196 205 174 211 194 196 194 204 176 202 202 180 214 188 205 192 190 170 180 196 184 223 195 177 223 201 188 223 176 194 195 178 192 205 201 198 179 171 195 178 182 177 185 187 201 185 207 179 202 218 205 177 180 199 196 194 176 203 181 210 191 209 198 193 186 215 208 190 164 195 194 220 210 192 212 185 182 192 196 193 189 210 201 185 189 179 186 185 193 194 198 198 194 190 218 183 217 197 194 191 216 202 191 198 201 211 208 209 180 229 187 194 182 187 181 196 211 186 207 207 190 216 209 188 197 207 207 221 181 204 210 175 189 207 198 210 210 201 203 188 192 208 208 207 189 209 181 190 193 162 197 195 216 201 211 216 196 180 187 205 196 207 198 206 203 189 191 192 199 201 213 199 206 181 208 213 175 216 182 226 228 213 185 193 205 193 192 195 206 213 213 221 210 195 221 189 199 223 225 202 203 211 209 203 206 203 243 208 205 210 194 212 178 206 260 200 205 207 199 209 200 197 231 193 207 227 212 226 187 215 239 205 218 208 225 216 219 209 194 212 243 194 199 219 222 230 234 200 200 219 208 229 228 196 209 201 209 206 220 211 213 212 203 210 229 224 237 215 221 200 195 209 197 212 211 198 219 243 216 257 199 199 225 229 214 217 205 196 210 234 194 208 228 216 217 227 216 206 214 195 244 228 190 220 243 207 211 223 226 215 224 218 227 208 225 196 229 230 229 226 223 210 212 196 223 222 235 257 232 240 216 256 208 205 241 234 228 230 219 207 241 231 241 218 205 204 240 232 213 226 220 219 207 238 229 250 235 218 231 232 216 238 260 249 219 216 235 241 217 225 241 208 271 229 231 227 222 266 243 222 245 240 258 230 220 240 238 227 239 235 244 248 277 259 211 233 219 237 237 247 226 246 247 226 229 243 218 265 262 247 242 228 272 247 243 224 276 256 248 242 247 267 276 267 228 248 263 246 288 270 245 239 264 275 263 276 240 249 281 256 298 232 286 260 275 259 271 276 286 269 263 260 281 277 283 283 299 277 278 285 300 288 288 290 282 264 276 306 291 304 296 283 259 247 264 275 287 295 278 289 296 270 302 306 300 303 296 321 299 311 295 335 304 295 282 281 308 287 296 307 309 308 335 289 320 301 316 290 277 307 300 301 337 323 312 291 318 328 298 338 351 335 313 349 343 329 316 341 335 310 290 327 309 344 381 320 308 324 322 311 337 319 371 338 337 329 329 350 339 337 335 364 365 315 355 320 357 333 350 330 359 324 335 333 327 365 346 361 321 339 320 345 340 349 347 330 339 348 371 344 378 345 348 358 351 341 356 378 362 325 312 377 333 381 336 320 341 346 371 328 347 368 368 326 386 367 327 319 374 358 353 359 348 344 384 358 354 346 347 341 389 332 377 339 323 367 336 327 340 363 326 346 335 357 320 324 342 347 303 330 350 321 314 337 329 349 332 324 319 363 336 294 299 336 317 350 345 318 321 320 351 322 293 305 296 320 298 299 341 279 324 329 336 314 315 297 293 293 322 291 327 266 321 293 320 310 293 306 311 291 316 274 298 278 285 286 294 269 272 285 301 309 294 267 275 301 272 287 258 267 269 265 266 276 246 273 265 257 249 278 270 286 263 266 271 233 239 246 258 281 275 292 247 243 232 243 235 235 240 245 249 261 238 247 221 241 238 241 265 223 262 241 273 244 242 225 241 264 219 248 232 235 221 243 245 215 224 236 229 246 205 266 247 251 228 217 264 263 258 230 263 208 207 244 218 230 213 239 217 208 216 216 206 233 173 188 227 195 219 244 221 221 235 198 223 243 212 221 220 193 209 221 237 210 224 182 204 195 214 220 203 210 205 207 216 198 190 208 217 217 228 187 219 199 193 218 195 216 207 210 208 217 232 218 193 224 210 170 186 211 213 231 211 197 224 205 176 167 193 195 217 187 188 209 203 214 196 192 180 164 193 203 194 195 211 185 201 189 181 179 193 203 203 182 193 177 167 199 185 209 171 191 211 196 179 196 215 171 213 171 183 177 181 189 181 174 180 180 198 192 189 186 198 196 186 152 174 190 192 151 186 196 176 138 204 184 165 194 201 164 211 165 179 176 182 215 194 184 162 196 183 200 195 196 182 174 158 181 199 179 191 168 195 155 175 199 186 174 207 174 189 186 150 195 176 133 172 153 185 181 185 160 200 171 191 162 174 177 189 178 187 171 174 153 189 173 165 176 176 175 192 176 179 180 183 190 181 178 178 195 170 184 178 172 183 179 197 179 171 183 177 194 169 173 201 205 162 176 162 176 169 163 184 188 164 153 169 170 182 147 184 156 177 175 181 150 165 149 186 168 177 167 179 161 164 209 160 151 170 167 166 170 163 184 176 174 160 152 171 156 169 139 178 193 179 164 149 178 173 182 162 158 146 177 183 160 173 181 169 166 186 156 141 142 197 183 164 164 150 182 163 156 150 143 176 159 149 173 198 147 175 142 164 150 169 171 172 189 152 171 155 159 177 166 164 137 163 150 183 133 172 158 150 163 154 167 190 175 151 186 169 163 144 139 157 156 147 161 142 155 176 140 148 156 157 159 153 152 146 154 142 147 174 147 155 156 163 174 170 167 148 134 150 162 156 165 161 158 182 158 161 168 154 168 157 165 160 159 143 175 172 136 150 159 157 152 176 173 152 144 179 159 166 139 160 159 161 157 169 168 153 151 161 170 165 144 168 135 123 141 159 156 162 139 147 168 145 159 141 162 186 164 162 164 130 146 164 172 159 169 156 154 141 162 156 162 152 154 145 160 161 162 154 161 175 147 162 149 163 169 151 145 154 180 157 156 167 151 147 164 154 139 167 140 154 161 143 136 165 147 157 154 174 175 136 157 144 154 158 158 164 164 187 163 142 146 169 156 166 165 154 156 172 137 155 154 159 151 144 147 144 162 141 161 154 159 172 184 145 168 173 161 156 149 139 173 136 161 179 146 161 148 142 188 141 153 164 144 150 170 145 155 146 148 144 157 158 146 142 159 135 189 172 132 140 159 159 159 167 142 153 149 140 137 162 146 148 130 131 145 161 166 158 144 141 150 156 160 143 135 144 165 136 153 128 147 154 172 140 147 152 158 133 131 157 155 172 152 153 153 154 157 158 139 149 144 154 136 159 149 121 169 156 152 174 156 159 172 152 151 144 147 159 142 163 183 140 162 167 149 150 164 146 157 138 137 151 138 142 137 146 156 164 161 147 154 147 156 151 152 135 127 156 161 154 169 162 129 144 162 142 151 143 142 162 152 140 146 154 152 178 116 148 147 161 155 145 167 158 144 155 152 123 155 148 149 126 142 142 145 150 162 168 152 169 156 189 143 143 148 159 164 135 174 138 163 157 151 146 145 158 182 170 138 136 145 149 185 148 152 140 144 110 156 173 138 151 131 143 147 148 148 143 163 145 137 139 135 163 134 162 174 154 147 134 152 158 141 145 138 140 161 150 157 155 139 165 158 150 145 163 152 146 146 153 136 151 136 140 148 142 151 148 140 167 133 142 127 158 142 150 153 166 163 130 180 140 140 153 122 139 157 163 148 136 142 141 160 125 157 154 128 142 156 151 138 134 146 148 170 149 150 134 144 114 151 159 124 141 147 160 161 141 147 161 133 141 159 130 129 137 142 142 150 136 148 121 164 130 134 146 148 126 142 164 152 127 127 138 144 133 146 137 135 153 140 141 143 138 146 146 159 133 163 150 132 147 160 140 142 137 152 155 157 165 138 137 148 151 141 158 155 145 150 129 152 134 168 142 142 126 126 139 147 136 145 160 138 137 132 150 130 133 146 161 147 151 139 133 132 150 152 153 152 153 143 138 151 143 136 139 137 164 161 168 135 141 139 153 156 144 160 166 145 147 119 151 121 151 145 158 161 145 140 173 153 127 153 148 126 127 137 135 133 139 153 164 155 141 148 122 167 122 150 141 155 148 151 154 149 141 123 154 136 140 132 166 133 137 122 150 128 132 138 129 138 119 133 144 147 146 149 174 125 114 143 167 127 152 139 165 137 144 156 138 139 155 126 133 137 143 144 140 140 121 129 124 145 135 136 146 157 140 133 148 166 129 142 142 141 173 154 141 143 143 135 153 134 127 128 144 147 127 142 147 147 160 136 176 156 137 132 148 131 154 145 144 148 124 150 146 142 136 158 136 135 156 147 152 148 143 138 157 134 135 138 126 144 143 158 151 136 130 140 131 147 139 151 126 145 135 131 138 152 140 136 121 142 150 114 136 159 146 136 141 140 133 158 143 132 156 157 158 135 154 138 171 132 158 148 137 145 154 126 128 164 131 153 135 139 146 133 156 145 122 151 139 155 143 138 147 145 138 140 142 133 166 124 136 136 138 146 128 134 150 152 130 147 146 149 126 156 138 145 116 149 131 138 156 156 133 133 138 117 131 125 141</intensities>
			</dataPoints>
		</scan>
	</xrdMeasurement>
</xrdMeasurements>
