<?xml version="1.0" encoding="UTF-8"?>
<xrdMeasurements xmlns="http://www.xrdml.com/XRDMeasurement/1.7" xmlns:xsi="http://www.w3.org/2001/XMLSchema-instance" xsi:schemaLocation="http://www.xrdml.com/XRDMeasurement/1.7 http://www.xrdml.com/XRDMeasurement/1.7/XRDMeasurement.xsd" status="Completed">
	<comment>
		<entry>Configuration=Conf. Reflection-transmission spinner, Owner=User-1, Creation date=2/28/2018 8:43:02 AM</entry>
		<entry>Goniometer=Theta/Theta; Minimum step size 2Theta:0.0001; Minimum step size Omega:0.0001</entry>
		<entry>Sample stage=Reflection-transmission spinner; Minimum step size Phi:0.1</entry>
		<entry>Diffractometer system=EMPYREAN</entry>
		<entry>Measurement program=C:\PANalytical\Data Collector\Programs\sample-1.xrdmp, Identifier={BB6687EE-8248-4E06-B0C7-67735DEB5D7E}</entry>
		<entry>Batch program=C:\PANalytical\Data Collector\Programs\P3.xrdmp, Identifier={B7A02020-5C58-4AD1-B2DF-076289CE0779}</entry>
	</comment>
	<sample type="To be analyzed">
		<id></id>
		<name></name>
		<preparedBy></preparedBy>
	</sample>
	<xrdMeasurement measurementType="Scan" status="Completed" sampleMode="Reflection">
		<comment>
			<entry>PHD Lower Level = 4.02 (keV), PHD Upper Level = 11.27 (keV)</entry>
		</comment>
		<usedWavelength intended="K-Alpha 1">
			<kAlpha1 unit="Angstrom">1.5405980</kAlpha1>
			<kAlpha2 unit="Angstrom">1.5444260</kAlpha2>
			<kBeta unit="Angstrom">1.3922500</kBeta>
			<ratioKAlpha2KAlpha1>0.5000</ratioKAlpha2KAlpha1>
		</usedWavelength>
		<incidentBeamPath>
			<radius unit="mm">240.00</radius>
			<xRayTube id="1010048" name="Empyrean Cu LFF HR (9430 033 7310x) DK427586">
				<tension unit="kV">40.0</tension>
				<current unit="mA">40.0</current>
				<anodeMaterial>Cu</anodeMaterial>
				<focus type="Line">
					<length unit="mm">12.0</length>
					<width unit="mm">0.4</width>
					<takeOffAngle unit="deg">4.4</takeOffAngle>
				</focus>
			</xRayTube>
			<xRayMirror id="27020009" name="Bragg-Brentano HD" hybrid="false">
				<crystal type="Graded" shape="Flat">BB/HD</crystal>
				<acceptanceAngle unit="deg">0.800</acceptanceAngle>
				<length unit="mm">55.3</length>
			</xRayMirror>
			<sollerSlit id="21010002" name="Soller slits 0.04 rad.">
				<opening unit="rad">0.0400</opening>
			</sollerSlit>
			<mask id="22030009" name="Fixed mask 10 mm">
				<width unit="mm">10.00</width>
			</mask>
			<antiScatterSlit id="22010003" name="Fixed slit 1°" xsi:type="fixedAntiScatterSlitType">
				<height unit="mm">1.52</height>
			</antiScatterSlit>
			<divergenceSlit id="22010005" name="Fixed slit 1/4°" xsi:type="fixedDivergenceSlitType">
				<distanceToSample unit="mm">140.00</distanceToSample>
				<height unit="mm">0.38</height>
			</divergenceSlit>
		</incidentBeamPath>
		<diffractedBeamPath>
			<radius unit="mm">240.00</radius>
			<antiScatterSlit id="22090010" name="AS slit 8.0 mm (PIXcel)" xsi:type="fixedAntiScatterSlitType">
				<height unit="mm">8.00</height>
			</antiScatterSlit>
			<sollerSlit id="21020003" name="Large Soller slits 0.04 rad.">
				<opening unit="rad">0.0400</opening>
			</sollerSlit>
			<detector id="7010019" name="PIXcel1D-Medipix3 detector" xsi:type="rtmsDetectorType">
				<phd unit="%">
					<lowerLevel>25.0</lowerLevel>
					<upperLevel>70.0</upperLevel>
				</phd>
				<mode>Scanning</mode>
				<activeLength unit="deg">3.3482</activeLength>
			</detector>
		</diffractedBeamPath>
		<scan appendNumber="0" mode="Continuous" scanAxis="Gonio" status="Completed">
			<header>
				<startTimeStamp>2025-12-26T14:29:12+08:00</startTimeStamp>
				<endTimeStamp>2025-12-26T14:40:43+08:00</endTimeStamp>
				<author>
					<name>User</name>
				</author>
				<source>
					<applicationSoftware version="5.5a">Data Collector</applicationSoftware>
					<instrumentControlSoftware version="7.9j 20171025">EMPYREAN</instrumentControlSoftware>
					<instrumentID>0000000011214615</instrumentID>
				</source>
			</header>
			<dataPoints>
				<positions axis="2Theta" unit="deg">
					<startPosition>6.00558257</startPosition>
					<endPosition>75.99655438</endPosition>
				</positions>
				<positions axis="Omega" unit="deg">
					<startPosition>3.00279129</startPosition>
					<endPosition>37.99827719</endPosition>
				</positions>
				<positions axis="Phi" unit="deg">
					<commonPosition>0.0</commonPosition>
				</positions>
				<commonCountingTime unit="seconds">13.770</commonCountingTime>
				<intensities unit="counts">545 541 515 542 543 561 541 513 492 513 513 505 525 542 549 538 571 497 516 534 553 501 547 498 547 541 493 550 575 529 535 525 551 521 502 560 523 539 491 512 509 517 532 513 509 510 529 497 583 496 493 520 484 510 522 500 541 506 494 518 488 552 521 493 510 513 529 489 517 510 492 538 540 513 500 559 506 442 502 505 520 481 521 464 545 523 555 470 515 463 563 515 504 481 488 504 492 513 475 467 511 481 503 524 487 449 530 491 480 507 509 508 491 500 540 534 502 494 456 495 489 514 489 466 520 480 542 500 493 522 527 466 491 514 481 497 503 494 464 509 434 505 495 496 479 499 504 491 487 506 473 469 498 479 536 518 534 486 537 494 509 477 477 491 463 499 495 453 457 481 461 474 470 515 434 487 462 506 497 473 462 489 479 500 462 529 478 500 452 460 469 484 467 510 465 474 479 481 511 503 471 512 486 516 480 512 467 478 463 463 517 514 445 467 488 447 432 511 469 468 509 469 427 472 520 504 487 491 454 486 457 518 452 493 477 478 481 460 482 457 504 494 465 478 465 518 481 509 451 479 473 454 502 452 461 465 488 477 480 466 448 466 479 460 459 461 477 457 454 458 479 450 495 450 496 473 479 517 488 480 450 473 455 454 506 457 472 432 486 463 466 482 441 454 449 491 446 518 493 462 496 465 436 433 484 443 488 448 457 486 462 447 467 477 442 475 460 442 455 464 436 445 415 500 482 471 458 450 471 463 484 464 414 471 464 464 431 485 442 450 461 429 448 393 473 442 445 413 449 463 441 461 470 434 480 463 464 449 465 453 485 416 449 475 452 426 505 449 477 448 466 476 419 482 465 475 452 452 471 417 437 453 458 423 441 452 442 424 442 455 466 434 404 475 437 468 433 448 482 426 494 501 428 436 471 443 464 454 481 460 436 439 428 442 477 444 436 446 428 443 445 421 447 466 432 454 437 438 448 463 430 425 421 426 484 475 420 451 448 448 434 433 444 445 452 443 442 452 446 457 425 459 459 443 413 428 417 437 435 451 452 441 456 448 437 425 426 451 470 480 427 431 456 445 468 469 417 406 382 439 398 456 413 450 416 431 438 439 418 462 397 418 458 420 447 421 430 421 444 406 407 442 475 455 424 430 431 425 449 426 469 413 396 460 489 430 423 438 417 433 475 424 438 448 429 464 473 431 412 454 435 429 411 459 452 426 428 426 437 447 415 415 485 414 423 460 403 419 428 416 420 411 441 474 449 419 442 444 404 418 437 415 427 449 450 448 434 426 412 446 442 415 441 440 446 437 431 429 447 393 454 408 433 447 427 418 427 422 414 431 405 438 419 406 431 434 446 435 421 423 422 432 420 430 439 447 432 459 489 475 420 457 419 407 404 431 442 408 423 454 402 424 405 420 430 429 426 400 446 446 416 421 385 395 393 424 411 408 431 426 412 414 423 415 442 438 399 419 404 440 437 437 420 435 395 380 430 434 387 454 438 424 400 410 412 378 391 410 386 459 437 447 383 434 412 361 397 378 434 398 429 420 401 418 406 385 425 412 444 412 419 383 433 397 441 420 395 406 448 409 433 418 425 404 427 427 377 406 396 410 398 424 412 390 407 374 416 398 417 399 396 390 389 393 395 429 428 391 422 483 403 389 401 371 403 416 412 416 430 435 407 402 421 426 389 408 396 414 364 447 416 375 405 405 420 395 408 410 401 410 429 414 393 392 368 394 393 391 414 390 362 431 405 419 406 396 446 382 401 404 384 368 421 368 368 387 388 407 417 395 403 390 417 425 388 385 384 416 385 368 389 396 404 404 412 388 381 388 378 385 359 408 382 417 386 395 371 362 403 395 396 395 397 419 408 417 378 400 415 399 382 384 425 433 414 361 396 387 424 420 391 358 376 404 374 378 381 388 382 404 408 363 367 391 363 394 389 395 415 413 372 392 379 401 386 380 378 419 388 333 381 411 404 435 403 389 370 392 365 410 406 373 399 355 402 390 422 404 424 374 387 408 397 365 393 351 396 380 379 379 352 393 372 370 396 336 349 399 393 370 386 377 324 350 392 367 338 398 360 358 384 382 349 367 393 398 368 352 363 387 321 360 358 421 380 345 362 390 381 367 362 360 371 351 350 386 384 413 372 346 354 393 366 390 353 346 346 379 357 366 382 352 364 366 383 367 353 356 398 368 388 408 403 370 377 349 358 380 363 353 398 378 406 371 354 339 386 394 360 359 366 367 343 362 351 376 402 366 348 372 352 344 411 341 362 364 355 376 362 360 373 364 357 366 348 353 335 362 364 396 393 331 354 364 370 346 348 363 386 339 315 350 332 367 360 368 390 387 376 350 374 373 340 358 344 366 367 356 373 361 344 351 368 389 359 352 356 358 355 340 357 361 345 336 336 344 382 368 369 351 340 350 364 360 376 360 351 340 363 329 359 364 385 339 376 345 336 354 320 333 353 338 344 372 331 327 341 342 340 380 372 340 326 321 361 363 376 353 354 372 343 367 375 329 344 367 376 387 350 385 334 339 315 364 411 345 354 324 375 338 342 353 382 346 341 377 387 343 319 360 360 376 338 321 337 314 321 314 352 375 374 355 355 323 320 363 332 330 365 310 342 361 343 344 364 340 368 311 350 329 337 318 328 363 318 371 347 329 332 358 341 333 355 330 321 318 335 319 307 306 351 326 317 326 336 328 332 354 318 339 363 334 335 325 329 364 309 339 362 337 354 361 342 373 362 344 333 376 332 353 326 328 345 356 358 359 344 340 355 375 314 349 380 341 318 329 342 302 345 348 322 336 340 308 342 329 313 355 329 366 303 327 330 331 371 333 329 297 331 333 310 323 381 362 330 325 341 341 343 330 304 306 326 310 334 316 338 324 313 333 371 333 347 330 350 374 308 334 306 333 337 353 324 331 337 359 333 349 349 357 345 311 364 324 338 336 333 342 297 330 369 338 317 301 348 350 312 309 316 319 301 357 308 312 331 332 338 361 336 295 340 332 318 356 322 310 339 341 297 308 317 340 323 302 284 330 326 347 322 335 319 318 314 304 309 330 327 331 327 330 313 364 319 323 304 335 348 333 301 303 345 315 344 316 343 301 312 311 327 340 326 348 313 344 331 341 323 321 339 296 328 337 328 322 321 295 321 343 319 307 344 329 322 337 330 313 307 299 334 330 353 310 301 321 318 310 312 319 325 359 286 317 298 324 303 323 297 353 299 331 323 323 288 298 316 325 336 301 334 279 317 357 318 324 308 303 352 300 290 320 317 320 273 298 315 301 329 332 339 309 302 333 324 306 326 298 293 317 316 317 327 340 315 333 329 318 315 328 327 306 300 326 314 334 312 271 320 319 313 329 357 338 305 313 311 354 283 334 318 333 355 317 320 319 348 348 340 350 319 331 313 320 356 305 292 304 299 364 325 312 338 340 319 342 289 324 319 324 323 320 300 352 300 335 304 356 291 347 313 330 299 328 305 343 314 310 350 300 259 318 318 353 280 319 285 336 340 308 330 320 318 349 349 298 328 345 332 343 314 311 294 310 331 335 305 334 318 329 353 330 302 341 349 300 309 306 288 358 316 291 325 302 287 302 295 330 303 322 320 321 291 332 321 321 284 292 332 323 339 306 300 345 345 329 323 316 320 316 305 258 325 329 342 311 310 326 320 324 319 345 350 344 311 294 308 323 315 287 332 323 318 304 321 340 327 299 290 316 315 311 306 331 311 292 336 300 321 313 317 321 335 344 329 307 324 324 326 308 293 301 330 371 311 315 310 331 328 318 359 330 324 314 315 328 346 305 329 336 298 321 344 297 308 300 290 326 286 345 334 333 310 325 329 323 297 322 293 319 350 332 331 330 303 332 285 331 325 305 339 319 333 335 322 317 308 310 356 319 351 337 311 306 314 314 324 310 309 297 380 332 301 288 342 299 300 319 298 312 281 328 325 326 280 334 328 301 295 292 299 305 321 311 361 319 323 318 314 296 353 304 293 354 334 315 332 299 335 333 319 311 329 296 314 312 344 359 294 330 325 352 349 300 321 323 308 330 356 302 314 335 310 330 326 305 319 287 347 337 356 269 349 273 330 315 352 340 335 294 296 326 311 318 334 332 290 350 291 332 349 324 347 334 319 359 300 300 317 331 321 363 299 311 320 293 364 321 330 311 313 345 318 325 315 323 326 319 324 352 331 305 302 305 317 321 318 340 321 320 324 326 308 321 321 317 333 309 357 355 290 333 342 333 346 338 317 320 335 324 330 332 340 324 327 328 301 341 326 319 350 312 304 325 339 350 327 307 344 306 328 327 346 322 364 325 338 321 336 350 323 323 358 318 325 315 302 327 337 303 285 311 302 367 334 326 319 340 341 325 320 319 314 340 333 316 339 323 316 340 308 301 351 351 351 315 345 339 339 343 331 327 341 307 352 363 377 306 344 353 318 345 331 321 360 320 326 356 335 381 304 338 330 317 345 344 356 306 315 358 341 305 358 340 316 341 333 348 361 324 339 313 341 346 348 314 338 355 384 357 349 336 318 344 333 316 342 351 338 326 329 306 361 305 296 347 362 381 360 315 360 344 351 362 352 311 339 360 339 339 343 356 326 352 301 360 326 356 346 339 324 363 366 339 343 326 364 336 363 355 312 325 340 353 335 332 348 351 363 319 364 335 373 348 366 366 356 394 365 356 334 341 338 339 369 358 373 313 355 370 376 363 343 361 330 346 315 359 361 362 350 371 365 316 359 366 340 362 343 331 384 351 348 316 352 360 351 351 337 400 384 380 369 350 350 323 346 361 340 323 385 312 350 339 331 381 389 349 335 373 354 337 357 327 350 315 331 350 376 303 334 338 354 321 388 336 332 357 358 338 378 369 334 347 343 333 351 364 357 364 340 362 345 350 355 353 339 367 369 339 334 371 408 335 353 345 392 332 346 322 372 388 359 342 360 327 318 369 332 351 335 363 386 347 344 359 342 351 342 329 360 376 378 374 341 376 341 358 336 362 362 367 349 383 360 337 343 333 372 325 341 380 370 333 355 359 359 374 348 388 339 398 357 319 329 358 367 309 351 381 341 381 375 323 348 318 347 366 363 354 354 329 367 332 364 350 375 386 379 362 361 347 343 399 385 402 366 385 344 349 370 358 359 356 337 354 375 382 357 351 393 341 352 368 387 368 390 344 374 358 334 382 361 361 373 368 371 368 391 338 376 362 355 322 363 354 356 325 379 358 358 348 338 394 343 366 404 356 397 390 381 387 379 387 363 397 354 380 403 399 385 388 363 370 380 424 369 362 368 395 344 385 350 355 358 371 397 379 368 333 363 330 371 366 383 350 345 354 349 369 375 355 378 336 355 361 342 372 361 360 366 331 383 367 342 353 323 356 363 377 357 358 299 374 359 365 366 364 388 348 415 407 389 390 389 350 350 365 391 357 347 379 354 354 339 348 356 358 345 350 359 331 341 325 378 394 371 347 352 349 372 389 381 355 390 345 342 340 326 339 345 350 385 355 342 365 352 389 318 345 388 369 403 400 370 375 370 379 372 370 387 370 353 348 355 379 364 349 348 407 391 362 348 385 364 358 380 362 343 387 338 345 342 381 356 385 391 369 347 352 382 353 352 384 350 406 374 370 402 364 394 377 403 360 346 380 330 381 400 368 383 339 361 374 362 405 387 352 348 363 388 373 361 391 336 356 370 351 365 340 384 359 373 372 364 375 352 354 371 415 401 376 368 351 391 351 365 340 354 353 379 365 356 364 352 359 378 343 379 361 398 368 383 398 372 366 365 382 346 380 382 344 354 361 383 334 332 362 410 347 339 364 331 376 383 380 345 367 353 399 361 361 400 384 350 380 363 378 386 389 384 355 380 365 349 330 342 309 329 358 407 372 326 389 352 354 396 313 381 385 358 374 378 383 352 353 352 371 407 357 362 326 402 367 358 343 382 377 336 379 369 377 331 362 411 375 338 362 352 381 348 361 350 349 360 353 369 336 339 366 360 301 374 410 370 344 381 353 377 372 372 360 394 351 343 359 355 346 354 382 360 378 408 313 360 370 384 356 335 370 358 311 344 377 337 378 367 359 387 356 404 358 347 356 356 355 357 371 348 380 386 383 349 367 388 389 343 348 382 376 386 372 363 355 368 352 340 350 379 359 333 369 346 368 340 310 416 341 366 358 348 416 373 355 358 350 375 362 315 357 370 361 370 345 409 366 371 399 396 365 361 321 387 310 362 344 380 354 351 337 347 399 331 364 331 365 356 366 373 361 359 361 361 345 339 334 346 335 346 338 360 349 363 370 342 344 358 357 366 342 341 359 342 360 364 353 324 325 363 371 336 367 364 345 334 357 321 373 355 388 380 346 365 363 374 325 336 334 358 361 363 389 359 341 346 323 364 378 373 373 399 342 376 337 368 326 344 355 360 323 313 362 329 330 343 375 364 330 362 355 344 381 374 362 323 347 351 369 351 351 355 341 366 376 330 323 352 320 364 351 381 352 355 381 362 365 314 361 360 346 340 377 340 317 351 348 325 336 347 317 335 339 348 343 359 347 348 357 363 342 384 347 354 340 410 349 336 369 369 342 382 348 337 364 324 316 343 401 349 339 369 368 350 357 365 361 335 348 386 356 364 395 339 356 354 397 342 384 348 351 330 377 342 349 357 381 379 282 346 345 365 377 367 352 355 381 343 339 391 365 371 374 318 355 375 332 360 369 377 378 368 377 364 356 366 366 343 365 379 359 376 363 364 343 352 357 355 340 349 347 355 363 356 376 371 340 331 362 339 331 368 340 371 346 386 333 338 377 322 324 332 375 340 314 341 356 374 341 352 357 331 363 371 313 318 380 321 325 343 356 348 347 334 320 332 318 362 365 357 345 367 347 324 339 325 323 350 360 328 336 365 348 381 343 314 359 364 331 333 332 348 338 332 383 345 323 341 322 353 361 340 359 345 339 382 299 334 381 375 326 335 372 357 327 354 342 358 354 326 318 317 314 321 307 336 325 359 316 336 330 357 357 324 328 320 363 366 323 347 332 336 333 340 366 334 362 342 363 352 329 337 336 343 325 374 326 341 347 355 314 345 357 342 341 309 342 298 343 360 368 334 379 337 358 335 368 314 309 331 336 341 354 326 337 317 350 337 357 344 362 310 330 327 333 317 324 345 293 344 325 332 324 321 331 319 361 327 342 330 369 375 314 352 343 312 369 335 348 305 329 336 325 335 378 339 335 309 329 351 350 318 319 333 317 338 304 315 325 311 353 326 366 322 342 340 324 309 340 316 322 329 323 339 317 296 300 346 311 355 353 354 295 337 335 351 327 345 361 332 331 306 332 337 330 327 314 346 367 377 345 326 337 321 336 332 359 344 299 360 321 327 317 356 335 325 334 310 348 337 344 329 341 336 342 345 339 370 357 314 323 315 320 317 342 369 324 295 314 350 336 303 301 319 333 326 311 318 320 342 355 342 344 314 305 299 340 364 343 313 308 354 352 296 311 299 351 333 335 360 319 335 315 334 331 346 337 325 349 331 339 384 312 346 329 310 361 323 279 318 325 371 346 303 319 341 356 325 329 362 327 361 334 286 339 309 302 325 340 295 355 347 344 350 332 298 318 331 379 338 309 357 311 350 340 277 314 331 348 333 335 352 328 341 327 313 354 308 340 296 311 322 334 348 315 325 322 336 321 345 312 361 326 360 331 310 354 328 334 345 330 332 342 350 320 324 347 363 284 316 333 322 299 324 335 323 330 309 343 336 357 333 309 312 347 360 293 336 303 329 318 330 348 327 323 322 318 330 315 338 342 358 327 343 299 314 322 320 326 321 345 321 327 320 331 317 325 299 356 291 315 318 351 358 304 332 353 327 340 341 347 322 340 346 308 337 329 305 300 321 312 340 319 300 284 330 321 315 324 358 346 309 338 301 313 345 298 281 316 335 329 323 362 317 302 315 321 338 305 326 323 285 345 329 344 381 306 312 308 321 337 308 353 318 336 290 307 309 324 327 367 293 313 294 325 333 306 321 318 325 296 334 318 312 313 333 321 321 309 310 328 325 338 315 344 310 341 303 291 320 289 271 340 319 353 297 338 340 320 340 302 316 321 319 322 315 317 327 303 347 298 325 314 319 323 322 295 377 330 278 322 347 320 324 325 348 329 311 349 308 339 315 311 298 303 292 310 333 317 333 328 321 302 325 342 322 347 306 291 315 325 348 285 284 335 306 329 314 321 314 358 291 294 337 286 332 343 336 316 318 351 354 314 349 349 289 322 296 310 350 342 319 346 283 360 289 323 353 299 301 340 331 315 313 303 324 320 300 281 336 353 350 340 319 275 302 280 321 335 339 297 312 308 314 328 332 302 308 344 335 342 334 329 306 329 290 289 336 342 320 313 288 280 305 311 312 334 345 309 335 301 306 307 313 335 323 277 313 310 312 315 300 318 336 326 314 336 312 331 307 321 335 312 364 321 320 345 323 310 288 310 293 323 306 331 336 308 317 331 301 345 330 311 316 305 317 321 338 296 317 315 329 343 326 311 310 304 331 317 308 342 325 330 322 296 315 316 325 317 333 298 319 316 300 301 306 306 328 301 288 325 336 323 306 324 331 301 286 327 319 314 334 308 329 313 309 297 294 328 322 311 296 342 315 331 337 298 300 317 316 324 305 306 321 299 301 335 314 279 292 323 306 288 309 344 284 328 316 314 342 296 298 312 333 348 330 304 298 354 297 296 319 315 335 345 333 319 297 336 303 321 304 304 333 319 304 284 313 307 331 314 317 277 317 323 277 303 322 299 332 307 291 316 324 320 325 313 325 327 309 341 342 348 332 341 301 334 310 315 306 320 305 299 325 310 313 327 304 312 332 313 341 309 336 333 297 332 319 300 290 307 307 325 345 301 293 300 325 328 318 331 312 333 326 323 274 309 280 277 331 306 305 313 298 322 281 341 317 271 296 274 323 321 321 280 314 322 301 282 297 317 318 286 325 304 308 282 295 308 295 321 314 317 324 344 315 343 295 339 308 311 285 298 339 333 275 323 322 316 319 289 300 287 323 288 314 336 295 286 307 291 305 312 311 290 310 291 300 325 298 330 301 291 279 328 296 333 285 289 288 302 308 289 315 289 320 297 330 307 298 291 267 312 306 306 333 293 325 318 308 313 329 311 338 335 291 299 308 315 319 289 331 296 328 302 323 306 317 314 326 318 301 313 310 325 334 315 316 277 293 320 317 321 283 267 289 315 318 286 334 299 291 281 305 316 313 269 277 331 300 296 308 322 289 308 315 307 284 340 281 274 300 323 294 318 303 328 317 305 292 286 298 270 287 300 328 304 310 296 304 319 266 304 291 318 313 326 274 303 305 304 293 308 308 310 302 311 326 297 280 304 298 289 297 299 288 310 324 309 321 321 306 294 307 318 303 288 291 301 318 302 283 309 310 306 308 310 272 283 304 303 293 307 311 287 337 288 284 340 306 284 316 307 293 312 287 282 287 284 295 325 264 304 293 302 277 296 321 291 249 338 307 297 301 296 291 335 304 285 317 306 303 294 323 318 298 261 273 304 289 313 273 309 285 275 262 298 282 279 315 297 322 279 298 298 267 287 269 302 289 291 323 275 322 285 304 304 286 301 312 311 321 280 289 263 275 276 295 308 317 298 285 317 297 277 272 302 308 330 307 290 300 304 298 320 293 281 335 288 293 292 313 296 309 314 300 311 314 294 293 296 289 277 278 295 264 286 332 274 323 316 282 284 304 284 316 352 291 312 292 271 327 279 249 289 296 315 302 292 299 257 288 299 283 282 295 303 322 329 282 298 271 264 294 348 282 309 292 282 309 299 268 294 307 311 304 307 307 274 292 288 284 307 284 250 313 309 286 278 299 283 293 258 308 261 293 279 279 278 316 304 333 295 271 327 308 311 302 313 297 277 322 289 327 280 293 312 317 319 293 288 293 287 281 301 286 308 318 319 293 311 320 314 285 320 304 297 335 295 340 310 299 290 288 283 296 289 308 301 293 308 306 312 288 325 286 314 303 279 267 326 295 304 304 296 287 288 325 319 295 298 302 311 266 286 292 321 286 304 294 330 287 263 322 293 308 275 300 291 303 307 323 266 284 327 311 285 273 285 294 289 274 292 277 305 281 268 271 289 288 275 349 308 281 277 311 289 293 287 282 289 304 288 294 318 297 302 284 284 278 291 297 285 274 330 301 265 294 299 309 313 324 306 323 287 291 261 327 275 272 292 321 328 301 312 282 291 284 305 296 300 277 296 282 301 303 267 284 306 306 295 288 288 281 283 278 301 271 283 263 267 280 276 298 277 306 333 286 286 298 298 277 294 273 294 280 285 281 289 277 311 294 298 306 298 303 314 290 281 307 264 277 294 287 309 305 304 288 288 281 312 290 293 276 314 278 329 250 302 294 304 281 286 265 260 273 244 310 316 286 312 312 280 293 292 238 298 293 311 296 289 279 288 320 283 271 270 284 318 298 276 302 337 312 263 286 295 288 286 311 306 249 302 295 294 324 278 258 290 302 290 287 297 302 288 291 301 305 318 279 304 276 319 319 301 283 314 317 297 319 270 292 288 294 306 273 285 290 266 273 278 301 272 290 269 275 285 286 274 302 284 288 275 285 299 268 283 295 279 305 293 278 285 291 282 283 281 259 306 279 302 247 283 279 279 287 272 298 325 270 283 290 286 286 287 301 277 300 294 301 286 303 261 301 298 271 294 279 298 310 289 313 269 279 266 302 295 257 294 286 279 280 285 298 273 301 239 265 259 306 286 286 303 277 312 303 270 292 275 280 300 309 284 272 245 282 264 277 287 289 302 286 273 296 323 273 277 283 301 267 266 265 275 284 316 312 280 290 314 292 324 278 279 288 286 290 270 287 305 289 269 262 267 296 318 300 317 300 269 276 284 314 287 305 305 302 282 298 301 292 261 275 279 272 298 272 257 281 277 270 306 299 290 281 273 274 273 263 275 287 279 274 245 278 280 258 271 264 289 263 280 276 293 245 287 275 304 256 263 283 276 259 234 259 260 281 278 294 281 250 250 286 276 281 281 282 249 294 268 290 249 280 224 269 245 257 259 311 272 272 274 291 249 273 269 269 251 283 270 266 280 283 276 245 280 238 284 234 258 277 245 261 272 262 231 272 245 277 282 259 262 222 256 261 274 249 270 232 245 279 299 290 257 264 258 236 250 241 262 278 237 243 237 258 251 262 289 245 233 284 221 286 276 258 235 244 237 235 257 250 259 231 243 267 240 242 276 259 249 250 231 281 268 273 249 266 236 285 281 230 260 257 229 291 250 246 272 231 239 214 268 239 271 248 222 270 264 240 234 267 228 271 231 274 235 262 257 295 247 266 277 264 256 265 215 230 262 268 282 248 224 247 232 246 245 235 241 247 273 240 300 265 241 231 259 250 241 235 250 238 261 284 272 260 241 260 266 274 285 216 270 242 276 272 279 271 242 233 246 246 268 234 267 281 241 290 263 233 239 269 261 247 279 276 258 282 243 240 278 233 248 240 265 274 296 284 247 266 245 274 264 283 237 236 245 245 236 241 270 256 269 261 267 245 259 266 258 258 279 248 288 276 259 242 246 215 246 287 267 262 246 262 245 240 245 276 256 216 235 270 260 289 265 267 233 227 246 256 204 247 281 243 282 249 257 262 243 249 261 235 232 233 259 275 243 281 236 202 247 247 263 256 260 272 235 246 240 257 243 264 242 239 277 257 226 258 228 218 248 246 227 268 262 245 260 260 235 229 237 247 217 214 237 247 226 266 236 234 258 232 240 256 239 206 247 241 214 248 258 219 247 249 243 237 221 222 224 250 274 249 268 250 249 204 245 234 264 246 256 233 250 259 262 268 243 279 210 234 241 236 257 219 229 224 242 250 215 236 245 261 247 233 233 243 239 258 236 250 224 228 227 203 210 235 225 242 232 235 262 259 245 272 248 250 241 261 228 226 229 231 236 241 214 227 240 219 217 227 226 243 221 230 231 241 268 259 239 240 236 241 243 249 236 228 222 261 228 235 229 225 245 222 208 241 232 221 221 235 208 249 233 211 211 213 244 225 224 222 217 215 220 267 231 236 207 239 231 211 235 194 225 232 219 218 239 216 212 266 225 230 224 228 269 230 217 256 228 248 247 233 224 238 233 230 237 247 248 206 217 230 210 224 235 251 214 238 247 265 198 229 213 219 212 221 259 238 227 210 235 217 242 214 261 222 225 216 227 208 228 229 238 207 233 224 216 201 246 200 233 203 233 219 233 212 244 224 228 249 211 276 234 261 223 207 242 237 260 214 208 223 212 225 237 230 241 237 233 269 187 239 237 213 230 237 229 228 218 215 218 227 227 232 237 232 222 225 227 231 218 214 207 222 226 231 235 233 228 239 198 243 235 261 228 224 213 242 236 237 228 222 220 198 221 222 216 223 248 250 222 214 244 213 220 230 234 205 238 228 248 211 211 241 233 209 240 198 198 229 261 210 236 217 219 214 216 224 239 219 232 227 213 213 226 219 216 239 236 233 227 239 221 220 234 227 237 229 226 236 218 241 238 243 222 241 216 213 226 211 231 250 235 237 242 221 236 198 219 225 204 225 222 211 236 250 212 202 239 228 199 228 224 215 221 231 231 219 218 222 222 220 210 228 240 232 236 219 206 208 202 234 259 223 237 244 213 226 218 218 232 208 238 224 220 222 221 233 214 225 238 224 227 225 215 249 235 217 245 234 240 234 216 230 230 243 208 225 267 246 230 270 230 235 216 256 229 215 265 217 228 234 226 247 215 238 237 224 257 231 239 241 228 228 220 231 203 270 236 233 203 233 259 257 220 220 240 224 239 235 239 267 238 243 224 235 257 219 233 240 227 261 212 224 220 266 201 242 202 219 228 229 221 228 208 265 240 224 250 242 204 223 207 243 241 235 221 213 251 216 204 225 217 235 211 264 217 225 212 209 214 240 219 222 229 225 237 203 205 227 238 224 224 216 232 218 215 201 196 202 229 226 241 220 227 233 247 227 222 230 202 228 224 216 238 220 194 237 236 238 236 239 276 213 259 201 238 237 219 235 219 218 207 227 221 210 234 242 235 225 227 215 228 258 248 203 239 216 246 203 269 234 225 257 222 272 221 228 244 235 227 234 261 228 228 232 227 200 214 241 273 225 222 259 259 256 238 268 260 259 280 260 240 251 302 224 282 276 259 268 289 278 266 304 316 306 289 275 295 308 284 300 272 302 279 288 315 273 325 319 263 292 310 268 292 270 305 283 294 306 265 281 290 288 297 256 270 265 274 246 267 247 284 266 231 284 240 220 241 256 261 273 263 266 269 260 264 215 248 262 235 288 241 220 249 246 257 232 245 229 226 242 245 249 271 267 230 237 275 223 231 276 244 243 248 285 233 245 246 235 275 240 236 259 264 262 295 222 262 251 232 248 265 244 240 215 248 274 240 264 262 243 251 231 271 265 240 266 278 261 247 283 238 231 278 259 262 256 248 260 266 244 245 244 242 271 257 243 239 240 273 284 263 229 269 272 227 276 277 278 246 273 248 224 240 272 247 263 270 291 265 237 272 279 231 246 250 281 281 291 273 269 269 273 265 259 249 275 263 273 261 281 251 296 269 244 248 269 277 278 287 281 261 275 247 267 286 264 245 244 264 244 276 295 263 265 282 268 247 287 257 278 273 284 259 272 304 282 273 242 250 246 295 265 236 286 283 240 287 263 246 294 268 283 276 280 261 246 225 261 278 280 259 284 259 249 292 272 277 265 261 240 264 321 305 235 273 268 244 256 237 270 267 238 270 238 236 269 260 295 225 275 260 245 219 268 242 257 250 243 234 273 266 263 267 233 247 279 213 245 236 263 258 279 263 246 267 248 249 243 242 223 284 245 243 251 233 241 248 227 248 234 259 258 241 257 231 224 245 240 258 260 239 261 237 228 220 223 249 242 203 236 240 230 238 247 247 243 262 223 223 220 240 239 270 237 280 229 232 228 216 237 213 263 246 218 244 203 231 226 242 258 202 232 213 224 234 231 241 236 239 256 217 209 239 220 230 221 242 217 232 212 219 223 215 210 220 207 230 224 221 240 199 209 227 235 228 229 214 244 204 228 198 233 222 220 211 221 227 228 169 200 220 217 221 193 222 226 207 220 208 213 225 225 211 215 221 214 214 201 225 198 175 215 229 209 192 209 206 200 180 211 198 199 227 200 186 214 234 220 173 224 211 191 203 175 199 223 215 187 204 201 197 200 198 205 217 201 216 204 219 204 220 205 186 204 180 230 210 197 213 182 212 191 211 228 197 209 215 220 190 218 196 169 216 192 184 214 182 202 177 186 209 201 203 203 206 203 168 224 193 217 201 209 197 175 190 194 202 197 202 193 185 180 190 185 202 213 207 199 176 202 198 195 205 186 173 193 196 169 212 207 182 208 182 183 196 176 206 207 213 195 183 197 198 204 207 192 179 186 190 174 179 198 184 219 209 194 200 188 207 202 177 213 205 197 162 206 200 216 199 184 200 174 186 187 222 176 204 170 193 210 178 170 221 224 165 183 197 179 200 202 188 192 201 184 179 195 192 196 183 182 205 182 190 190 192 209 180 212 219 189 194 173 193 203 170 193 215 180 221 186 162 156 171 186 185 199 183 158 181 189 185 186 190 179 182 200 201 180 180 180 197 196 182 163 180 192 185 190 190 179 201 173 201 179 172 187 197 194 188 190 208 201 177 203 177 176 182 192 173 161 176 159 180 172 162 212 173 192 172 183 165 175 207 195 182 203 177 191 176 196 183 156 182 199 180 197 167 190 169 186 184 185 195 197 184 185 196 192 183 187 186 178 149 199 200 182 186 181 191 200 214 187 184 195 155 173 162 193 137 174 198 172 157 173 177 195 186 176 179 163 171 163 199 175 193 192 162 195 173 194 185 168 197 184 196 190 198 198 207 168 186 184 185 170 153 178 179 176 200 186 194 175 177 158 203 184 193 197 183 199 207 167 183 182 192 183 197 184 163 210 170 174 173 199 170 190 185 204 205 162 170 150 174 170 196 180 178 173 184 167 184 196 181 199 185 163 188 160 168 176 186 182 152 179 152 178 190 183 177 185 176 194 183 194 202 162 187 180 172 192 165 192 180 194 169 174 188 162 189 172 203 202 178 178 199 180 176 179 159 173 185 189 174 178 169 183 192 186 171 187 191 176 183 160 158 216 164 199 186 178 178 175 182 167 169 180 193 191 179 177 196 181 179 180 202 152 156 181 192 168 168 183 178 175 163 168 168 172 186 174 152 190 193 174 202 195 193 194 179 204 185 174 160 162 172 173 179 172 155 192 183 187 196 181 164 182 174 185 192 187 190 183 195 192 168 185 185 184 161 191 179 153 202 174 154 179 174 184 203 188 191 174 193 194 184 199 178 186 181 172 175 187 201 166 193 182 195 180 197 191 161 199 177 182 154 201 158 165 187 186 179 206 163 177 170 183 214 174 158 184 175 172 179 177 177 191 159 183 162 214 172 201 178 186 159 175 151 164 177 173 180 191 172 184 167 191 180 199 156 180 183 195 171 178 182 186 154 194 169 158 163 164 192 159 179 188 192 189 174 186 196 161 165 174 191 164 184 179 191 169 204 183 182 179 178 176 205 181 169 171 175 193 145 197 193 193 175 188 178 168 188 186 172 166 197 192 199 174 179 187 188 142 153 176 187 180 176 176 137 161 180 168 167 188 176 157 174 152 163 172 186 171 173 191 194 184 178 159 163 172 193 180 169 188 176 201 164 195 181 163 169 163 183 167 178 212 188 177 159 182 162 181 185 188 175 171 158 174 198 193 186 162 183 197 179 193 213 164 174 205 182 172 178 180 189 198 168 191 189 193 185 188 181 183 179 182 199 172 198 204 179 204 182 199 180 188 189 178 192 162 175 181 187 169 178 188 158 167 206 141 201 177 164 171 193 189 199 153 189 215 164 188 222 178 185 201 220 204 159 181 161 199 204 180 167 176 197 160 205 208 183 204 180 155 189 170 153 181 164 185 166 177 173 185 156 196 181 196 176 173 172 176 167 189 157 221 194 179 182 196 189 178 179 214 184 174 182 203 184 161 183 162 185 191 170 179 166 220 173 170 184 173 190 171 159 203 166 169 183 166 172 182 155 188 188 174 166 170 190 179 168 170 156 183 171 164 184 181 168 172 176 157 193 155 171 188 183 188 192 151 158 164 188 164 189 186 174 152 176 153 187 203 179 188 184 185 166 168 184 160 179 169 192 196 168 172 165 182 158 162 179 181 166 179 138 184 188 179 172 194 180 179 154 198 168 176 190 194 180 190 177 172 169 128 203 186 192 180 174 176 180 159 173 155 140 191 173 171 195 169 167 186 166 161 170 174 164 181 175 173 179 194 164 187 192 193 165 161 180 183 192 185 192 194 189 176 195 169 162 209 187 200 185 212 172 188 160 182 177 165 180 158 170 157 191 164 178 184 201 149 196 181 160 158 180 158 160 172 180 173 193 184 167 188 173 175 172 179 179 161 179 183 144 183 175 156 178 171 156 191 191 152 195 168 178 178 157 210 177 173 180 177 166 175 157 200 163 181 181 152 195 190 174 164 166 163 173 185 172 191 169 164 147 182 180 177 192 206 185 186 158 180 169 185 177 166 184 166 170 175 189 181 193 186 183 149 159 197 186 183 170 167 179 170 160 185 178 189 171 169 176 169 170 184 174 169 191 174 165 171 179 167 175 183 200 177 200 197 186 194 169 167 187 187 185 161 188 145 190 166 194 185 170 192 177 170 191 168 181 173 183 172 202 199 176 204 183 176 155 169 171 143 184 163 172 182 189 185 188 183 199 191 164 206 167 159 186 192 178 172 177 173 170 192 188 189 173 159 193 183 192 194 209 161 163 171 177 173 168 187 171 163 162 178 193 197 182 176 206 163 193 188 170 189 167 189 201 174 157 168 180 172 192 199 176 189 157 166 171 175 193 172 201 191 179 172 176 178 189 174 187 189 179 182 167 193 181 161 174 178 196 166 176 187 180 184 184 182 166 183 156 191 166 169 208 172 167 174 179 177 175 189 188 169 186 186 208 171 152 187 170 181 187 178 210 188 177 172 175 189 163 185 190 185 162 156 197 201 206 167 177 194 194 195 174 170 175 184 173 192 173 176 172 172 164 206 174 161 172 165 168 189 194 175 202 188 205 213 194 185 163 190 157 172 200 181 179 165 162 176 163 152 207 172 161 190 185 185 203 189 194 198 191 168 202 180 159 187 177 203 188 172 173 178 176 193 171 182 185 177 178 181 178 181 185 178 176 201 185 185 157 194 185 175 180 145 186 166 163 187 192 200 187 173 176 189 196 184 182 194 180 179 217 187 217 191 180 186 193 186 197 168 200 172 168 175 196 201 183 201 184 191 189 196 194 183 208 169 182 185 197 170 191 190 162 185 199 204 201 211 168 148 189 177 200 186 197 192 198 174 203 180 146 210 184 174 182 176 194 225 192 180 192 186 232 179 171 181 208 178 198 194 206 191 198 210 192 210 187 218 196 188 187 173 197 195 182 201 201 185 176 200 197 176 204 204 222 227 179 183 190 189 184 195 217 186 202 178 184 202 193 195 183 192 201 188 224 206 205 183 195 170 191 195 197 223 188 200 208 190 220 212 200 192 214 199 202 180 174 183 166 200 178 214 207 188 174 184 200 180 186 207 202 199 218 217 197 189 211 205 207 183 160 209 198 177 195 189 193 196 212 191 213 197 185 204 185 182 198 204 164 184 178 206 194 189 187 168 202 196 207 226 189 214 219 165 182 210 197 192 201 205 219 185 207 215 191 182 213 194 194 193 193 213 202 211 186 210 184 176 198 208 207 218 196 198 199 184 202 168 196 199 190 193 182 174 204 186 174 189 218 197 192 195 198 181 189 179 213 190 191 199 213 191 192 195 195 182 222 202 187 183 179 189 183 187 200 175 189 178 209 189 185 183 193 174 198 212 179 203 179 158 166 191 176 184 208 186 181 201 197 175 183 189 207 184 208 194 180 210 201 191 185 181 201 199 191 192 200 203 177 187 202 184 192 205 190 191 196 220 188 171 184 196 206 192 176 167 190 192 171 199 183 187 202 181 182 177 185 196 173 181 190 177 205 201 186 188 177 209 172 192 198 170 178 196 196 188 189 152 197 221 201 164 197 205 198 180 203 189 167 208 196 188 204 199 203 184 191 182 203 188 171 162 206 189 200 197 207 208 188 193 213 244 182 201 193 216 206 188 217 198 200 203 189 187 182 192 192 196 200 195 186 211 184 174 213 184 215 201 211 186 209 187 216 200 190 182 184 193 193 201 223 189 161 178 196 190 198 204 185 200 184 200 199 202 189 186 187 224 186 181 193 206 188 230 197 236 202 204 198 222 173 211 220 181 231 194 176 195 180 218 208 203 190 197 200 174 197 214 200 201 203 185 194 231 195 200 217 193 199 192 181 214 190 205 191 228 205 225 223 192 200 200 195 185 219 235 199 237 189 202 210 188 183 219 201 203 193 196 204 188 194 214 196 162 194 194 212 214 203 212 212 227 183 217 209 208 183 216 187 182 209 201 218 202 227 195 215 226 182 177 187 202 197 168 227 191 202 201 199 175 209 196 210 189 200 195 173 198 193 191 219 195 211 218 207 196 185 218 197 201 186 204 189 195 207 210 209 206 202 186 209 199 201 175 221 195 199 202 208 217 203 223 222 192 207 222 193 217 213 197 208 180 220 208 235 207 218 231 198 190 210 209 199 218 188 175 224 200 205 223 206 228 208 213 198 202 189 182 190 215 228 205 222 208 205 175 201 198 210 207 221 204 189 229 211 197 231 213 212 223 210 208 204 211 207 205 177 209 206 207 191 197 185 205 198 189 175 205 201 215 204 222 238 207 229 229 178 191 198 188 206 200 209 215 244 209 192 231 216 213 224 232 204 195 220 189 199 200 193 221 200 199 191 229 211 210 210 244 201 227 209 184 217 208 215 201 191 171 205 186 199 201 215 186 199 214 204 194 209 193 188 223 197 218 207 211 214 231 234 216 209 247 178 198 177 219 202 245 216 192 209 199 205 195 198 195 228 205 196 233 205 225 213 204 215 202 214 220 207 217 206 201 190 201 189 202 202 221 199 242 197 215 245 191 209 198 212 201 189 221 220 230 224 215 204 209 201 212 184 223 204 217 208 207 186 176 183 217 195 192 193 183 231 182 200 179 192 213 208 201 231 207 212 208 178 214 210 229 198 209 203 192 220 211 187 219 202 208 196 210 195 225 203 199 196 202 207 199 226 190 224 209 197 215 183 204 193 197 215 223 190 212 217 199 189 188 191 195 222 192 195 228 221 220 176 187 207 188 212 201 212 198 193 179 218 186 197 233 240 224 194 213 192 220 164 215 197 229 191 214 204 200 206 212 211 192 207 211 215 195 194 221 182 223 224 204 226 189 204 200 188 192 195 202 199 203 194 201 197 209 222 207 202 181 196 167 207 216 204 180 191 187 209 206 191 194 207 197 205 201 222 198 198 200 198 202 192 196 198 196 209 194 185 210 207 204 195 213 188 196 218 203 216 205 224 209 194 200 165 211 201 192 201 195 222 198 219 207 228 189 213 240 192 216 196 210 177 190 214 203 182 189 193 206 209 190 208 195 213 219 212 178 205 188 206 168 197 201 207 214 232 216 181 194 202 205 193 208 186 208 206 208 201 207 204 193 211 208 213 197 206 193 213 197 193 230 187 192 185 198 203 218 186 217 198 205 199 219 193 184 176 211 213 210 189 197 190 190 178 195 173 215 227 222 202 212 202 213 209 180 184 214 191 204 174 195 198 213 210 210 186 207 172 218 214 206 189 204 207 213 207 201 200 216 205 209 207 196 195 198 210 188 183 212 169 221 198 198 189 211 212 197 224 219 208 195 174 212 192 210 184 199 212 192 233 199 202 204 177 207 183 227 226 189 216 214 199 187 213 192 208 197 198 198 227 184 193 205 178 211 209 223 240 238 208 219 209 209 191 191 222 218 202 241 217 198 182 195 210 231 206 186 193 219 235 195 228 194 220 221 166 223 190 191 245 209 222 192 191 226 203 210 186 234 224 237 202 200 217 217 209 222 235 243 210 203 182 195 226 214 220 232 209 191 207 207 223 221 218 232 239 204 212 216 219 207 238 197 221 206 231 222 226 209 218 192 232 201 228 197 221 245 206 221 210 238 223 220 235 220 263 209 222 214 225 207 208 214 212 210 223 214 204 212 226 205 227 212 207 204 226 194 185 215 204 219 230 229 221 201 189 189 197 226 217 194 226 219 195 206 224 245 240 228 242 189 216 214 222 219 218 223 207 207 239 231 221 229 205 210 200 234 225 240 225 225 198 215 212 215 237 231 231 222 216 215 214 217 229 225 218 230 229 211 208 232 224 229 204 225 223 235 234 230 215 224 228 226 265 217 243 193 221 220 220 243 211 229 231 214 215 237 219 212 230 199 242 226 237 216 242 242 242 234 225 237 213 212 210 236 256 212 237 233 231 219 223 230 237 244 248 228 241 231 231 234 240 216 210 235 221 235 273 237 260 219 249 258 262 232 249 230 241 208 212 235 234 211 257 244 257 242 234 224 233 261 222 247 232 233 224 262 294 274 248 245 258 245 291 228 265 258 269 215 251 223 241 259 243 231 230 226 232 233 243 244 224 271 262 248 232 249 291 266 267 248 262 245 224 257 265 307 239 246 230 234 278 257 250 264 264 240 258 258 245 276 264 260 281 303 291 225 288 260 296 256 290 273 281 294 267 279 287 280 281 281 271 273 287 247 291 265 271 262 271 276 259 257 311 285 269 266 280 266 278 279 272 272 268 262 279 303 235 288 265 283 297 258 288 281 287 241 296 264 281 273 302 277 267 275 251 306 264 295 258 271 258 302 284 281 276 290 294 292 274 289 306 289 283 303 285 282 285 269 259 308 279 275 288 279 285 275 279 281 257 271 276 274 283 285 265 242 289 308 274 281 298 263 280 310 275 267 281 292 250 278 288 262 283 270 279 241 260 270 256 277 270 251 257 298 296 301 272 293 287 262 296 239 256 226 274 249 273 263 222 233 231 270 295 236 303 269 267 249 250 271 294 266 224 266 258 268 234 257 243 222 259 228 245 230 261 239 240 240 226 247 240 261 261 274 264 278 217 244 250 216 272 212 260 243 223 256 246 244 220 257 261 218 242 218 236 231 232 276 242 233 249 233 230 233 207 218 244 228 200 238 236 227 235 220 226 246 201 224 216 257 230 246 250 212 246 225 237 233 206 233 217 227 225 225 244 210 210 262 222 240 201 209 227 209 222 218 244 230 207 218 192 206 200 235 213 204 233 221 207 222 197 203 198 214 221 229 206 204 220 233 241 212 219 217 233 229 229 234 189 223 235 196 208 245 211 211 209 217 222 198 193 208 184 218 200 195 188 204 204 197 222 219 209 203 197 201 203 192 190 187 217 171 210 214 202 192 192 170 207 174 202 187 180 200 183 215 198 217 183 198 176 204 208 230 197 196 193 211 189 206 199 199 186 200 172 201 183 220 198 180 178 201 188 211 205 179 203 180 182 187 187 200 175 200 195 203 195 208 198 184 175 181 203 168 183 174 199 183 219 191 214 164 183 194 213 194 214 216 199 193 193 172 193 206 173 174 159 195 189 173 185 178 190 195 185 191 186 182 170 169 194 195 206 184 181 155 166 197 209 205 190 187 185 195 188 191 209 201 208 190 171 173 180 195 169 181 161 176 185 176 162 199 188 176 174 181 198 173 183 175 193 186 172 190 167 180 207 200 193 184 202 207 182 173 198 198 190 170 190 197 186 184 182 188 170 184 171 182 179 193 178 180 168 208 194 202 201 184 159 180 183 167 194 181 183 172 177 172 173 201 177 187 177 175 168 179 181 155 166 167 180 162 192 189 200 189 157 189 179 190 182 200 176 168 174 188 173 203 161 194 199 174 201 171 164 177 172 183 172 191 175 147 187 199 166 172 170 184 178 167 178 192 186 158 186 192 208 193 173 178 187 196 178 184 180 182 178 187 156 184 183 187 160 185 181 185 173 199 188 168 196 195 186 186 199 155 167 178 172 195 167 169 164 181 198 154 146 161 178 142 170 199 158 177 176 177 172 190 145 155 172 198 173 163 158 162 179 153 174 171 185 171 185 210 158 185 165 174 174 154 184 162 158 173 186 178 162 176 187 176 172 165 196 174 155 152 158 185 180 184 167 170 192 181 202 184 151 187 178 180 184 175 207 152 180 195 149 160 189 190 154 173 185 154 184 168 164 180 157 182 168 176 167 168 150 164 172 174 175 180 181 156 154 166 174 174 177 167 171 140 176 169 144 159 169 172 162 160 159 177 162 153 192 155 185 166 172 166 166 177 177 170 169 167 172 179 152 184 175 192 172 156 185 158 158 166 161 147 169 157 182 192 161 164 178 175 179 168 156 180 162 130 168 161 172 172 156 161 146 166 133 193 155 163 187 171 152 175 170 157 165 164 154 156 163 161 158 184 156 186 152 179 169 152 183 181 162 175 175 163 155 174 159 173 193 143 163 167 153 173 149 160 190 143 156 174 141 159 155 182 148 179 169 190 175 181 157 198 161 182 164 188 157 170 164 192 161 153 160 190 176 155 165 141 173 170 178 176 152 170 141 149 168 148 190 160 171 192 163 144 177 159 142 170 161 173 150 142 192 160 163 195 162 188 162 164 166 150 175 168 165 165 145 170 147 169 166 158 152 165 174 177 154 157 160 193 169 140 166 155 160 174 172 161 153 160 152 152 159 168 182 148 152 181 158 154 160 178 158 176 153 184 171 136 141 148 171 162 163 156 152 156 142 161 176 150 171 145 135 171 164 157 170 150 169 176 175 154 179 169 175 178 158 138 171 168 166 175 171 142 150 174 150 144 158 142 145 161 142 184 172 136 171 172 157 161 153 136 168 140 155 150 157 149 169 157 165 185 163 134 158 176 155 156 151 170 121 171 170 179 173 167 191 174 159 163 145 161 139 142 152 161 149 165 172 150 154 165 139 163 152 143 145 164 162 151 154 139 170 159 174 139 170 163 149 158 184 169 156 164 169 139 138 133 149 175 149 151 143 153 161 152 167 179 138 167 161 159 168 143 145 168 153 138 144 163 142 161 157 136 142 190 166 147 159 168 175 153 158 156 157 169 146 165 149 152 164 161 166 139 131 148 160 147 164 134 179 176 166 158 170 154 174 166 169 170 172 154 161 175 140 167 159 162 133 158 140 168 160 137 153 141 150 157 151 169 151 157 144 142 147 161 146 144 156 178 163 150 158 176 177 162 156 139 170 188 150 141 137 154 175 168 147 143 153 154 161 152 183 156 171 153 155 150 141 152 150 144 147 142 151 171 159 147 154 138 153 140 151 150 143 128 150 150 161 133 145 157 170 145 140 160 144 133 166 152 148 176 130 152 171 152 137 161 163 136 156 167 163 141 142 142 133 140 148 162 166 148 147 177 141 161 152 151 159 178 161 155 157 155 147 162 153 159 151 166 148 163 157 161 140 158 151 162 147 135 170 137 136 147 154 150 158 138 149 146 157 136 169 124 168 152 147 169 148 169 157 156 143 135 144 127 175 160 152 149 154 144 143 148 173 144 169 150 153 131 145 153 150 137 148 128 148 155 142 184 148 134 177 171 154 148 140 139 149 153 146 153 138 137 125 164 147 126 153 161 151 144 159 159 148 140 150 134 162 155 143 136 168 149 144 150 153 130 151 137 137 156 151 148 139 176 116 141 130 153 167 165 148 148 126 154 165 133 141 154 135 127 154 157 136 174 128 141 148 150 148 158 177 161 161 136 163 129 135 147 193 153 147 137 152 137 132 137 156 145 149 142 162 155 136 168 168 133 138 150 151 164 143 145 130 161 136 141 139 149 135 168 147 162 147 142 142 132 149 128 147 158 160 141 170 142 148 147 149 148 145 126 147 146 143 145 146 164 129 146 140 138 133 161 127 141 152 152 136 133 178 136 154 123 157 136 139 134 146 164 177</intensities>
			</dataPoints>
		</scan>
	</xrdMeasurement>
</xrdMeasurements>
