<?xml version="1.0" encoding="UTF-8"?>
<xrdMeasurements xmlns="http://www.xrdml.com/XRDMeasurement/1.7" xmlns:xsi="http://www.w3.org/2001/XMLSchema-instance" xsi:schemaLocation="http://www.xrdml.com/XRDMeasurement/1.7 http://www.xrdml.com/XRDMeasurement/1.7/XRDMeasurement.xsd" status="Completed">
	<comment>
		<entry>Configuration=Conf. Reflection-transmission spinner, Owner=User-1, Creation date=2/28/2018 8:43:02 AM</entry>
		<entry>Goniometer=Theta/Theta; Minimum step size 2Theta:0.0001; Minimum step size Omega:0.0001</entry>
		<entry>Sample stage=Reflection-transmission spinner; Minimum step size Phi:0.1</entry>
		<entry>Diffractometer system=EMPYREAN</entry>
		<entry>Measurement program=C:\PANalytical\Data Collector\Programs\sample-1.xrdmp, Identifier={BB6687EE-8248-4E06-B0C7-67735DEB5D7E}</entry>
		<entry>Batch program=C:\PANalytical\Data Collector\Programs\P3.xrdmp, Identifier={B7A02020-5C58-4AD1-B2DF-076289CE0779}</entry>
	</comment>
	<sample type="To be analyzed">
		<id></id>
		<name></name>
		<preparedBy></preparedBy>
	</sample>
	<xrdMeasurement measurementType="Scan" status="Completed" sampleMode="Reflection">
		<comment>
			<entry>PHD Lower Level = 4.02 (keV), PHD Upper Level = 11.27 (keV)</entry>
		</comment>
		<usedWavelength intended="K-Alpha 1">
			<kAlpha1 unit="Angstrom">1.5405980</kAlpha1>
			<kAlpha2 unit="Angstrom">1.5444260</kAlpha2>
			<kBeta unit="Angstrom">1.3922500</kBeta>
			<ratioKAlpha2KAlpha1>0.5000</ratioKAlpha2KAlpha1>
		</usedWavelength>
		<incidentBeamPath>
			<radius unit="mm">240.00</radius>
			<xRayTube id="1010048" name="Empyrean Cu LFF HR (9430 033 7310x) DK427586">
				<tension unit="kV">40.0</tension>
				<current unit="mA">40.0</current>
				<anodeMaterial>Cu</anodeMaterial>
				<focus type="Line">
					<length unit="mm">12.0</length>
					<width unit="mm">0.4</width>
					<takeOffAngle unit="deg">4.4</takeOffAngle>
				</focus>
			</xRayTube>
			<xRayMirror id="27020009" name="Bragg-Brentano HD" hybrid="false">
				<crystal type="Graded" shape="Flat">BB/HD</crystal>
				<acceptanceAngle unit="deg">0.800</acceptanceAngle>
				<length unit="mm">55.3</length>
			</xRayMirror>
			<sollerSlit id="21010002" name="Soller slits 0.04 rad.">
				<opening unit="rad">0.0400</opening>
			</sollerSlit>
			<mask id="22030009" name="Fixed mask 10 mm">
				<width unit="mm">10.00</width>
			</mask>
			<antiScatterSlit id="22010003" name="Fixed slit 1°" xsi:type="fixedAntiScatterSlitType">
				<height unit="mm">1.52</height>
			</antiScatterSlit>
			<divergenceSlit id="22010005" name="Fixed slit 1/4°" xsi:type="fixedDivergenceSlitType">
				<distanceToSample unit="mm">140.00</distanceToSample>
				<height unit="mm">0.38</height>
			</divergenceSlit>
		</incidentBeamPath>
		<diffractedBeamPath>
			<radius unit="mm">240.00</radius>
			<antiScatterSlit id="22090010" name="AS slit 8.0 mm (PIXcel)" xsi:type="fixedAntiScatterSlitType">
				<height unit="mm">8.00</height>
			</antiScatterSlit>
			<sollerSlit id="21020003" name="Large Soller slits 0.04 rad.">
				<opening unit="rad">0.0400</opening>
			</sollerSlit>
			<detector id="7010019" name="PIXcel1D-Medipix3 detector" xsi:type="rtmsDetectorType">
				<phd unit="%">
					<lowerLevel>25.0</lowerLevel>
					<upperLevel>70.0</upperLevel>
				</phd>
				<mode>Scanning</mode>
				<activeLength unit="deg">3.3482</activeLength>
			</detector>
		</diffractedBeamPath>
		<scan appendNumber="0" mode="Continuous" scanAxis="Gonio" status="Completed">
			<header>
				<startTimeStamp>2025-12-26T14:41:31+08:00</startTimeStamp>
				<endTimeStamp>2025-12-26T14:53:01+08:00</endTimeStamp>
				<author>
					<name>User</name>
				</author>
				<source>
					<applicationSoftware version="5.5a">Data Collector</applicationSoftware>
					<instrumentControlSoftware version="7.9j 20171025">EMPYREAN</instrumentControlSoftware>
					<instrumentID>0000000011214615</instrumentID>
				</source>
			</header>
			<dataPoints>
				<positions axis="2Theta" unit="deg">
					<startPosition>6.00558257</startPosition>
					<endPosition>75.99655438</endPosition>
				</positions>
				<positions axis="Omega" unit="deg">
					<startPosition>3.00279129</startPosition>
					<endPosition>37.99827719</endPosition>
				</positions>
				<positions axis="Phi" unit="deg">
					<commonPosition>0.0</commonPosition>
				</positions>
				<commonCountingTime unit="seconds">13.770</commonCountingTime>
				<intensities unit="counts">492 500 538 510 546 525 523 494 491 488 480 513 519 525 532 513 497 508 499 502 501 486 510 475 520 529 528 505 534 493 515 564 507 488 465 504 534 502 496 513 508 581 483 517 489 488 504 492 502 516 493 477 480 552 506 523 518 492 511 513 518 483 533 466 501 516 477 461 480 515 465 493 511 520 445 512 509 500 503 461 471 487 497 469 503 503 516 470 462 447 513 484 500 487 465 450 526 485 484 480 502 492 481 478 480 498 481 492 517 508 490 521 492 475 529 509 519 473 505 515 475 487 523 495 482 481 493 511 493 524 534 492 528 474 489 494 499 492 467 450 506 482 472 517 498 461 475 498 508 461 534 539 524 497 486 513 499 479 442 476 490 494 493 506 499 524 514 508 466 475 480 469 495 539 490 517 473 480 495 464 526 471 491 440 448 483 508 488 522 540 512 514 487 467 432 519 480 483 478 467 517 471 481 475 463 488 480 465 455 484 487 495 489 486 505 533 484 493 475 473 452 520 483 472 492 504 463 489 485 471 464 435 458 479 533 499 461 506 543 495 463 510 542 460 475 489 489 485 447 437 520 477 510 484 485 474 500 497 483 470 462 468 494 495 453 472 491 498 460 449 468 483 463 475 505 482 459 481 461 490 477 462 459 500 458 491 462 496 495 469 427 452 454 471 496 482 521 481 508 482 467 475 492 499 482 433 484 452 463 455 493 481 482 455 462 497 481 499 472 448 482 446 469 473 451 503 497 481 455 475 454 456 429 443 442 486 428 452 490 486 518 485 469 488 480 474 457 462 504 484 480 467 465 438 460 452 464 452 433 491 447 481 471 460 460 452 451 508 443 454 500 474 470 444 486 470 430 458 425 457 457 457 458 460 483 465 437 469 446 504 463 436 499 449 467 463 471 494 476 479 463 471 457 448 479 469 454 411 449 409 445 445 456 439 475 430 427 448 456 392 456 477 488 446 428 447 450 462 509 494 451 424 461 462 398 454 459 431 460 488 411 467 445 399 461 471 455 471 439 443 486 453 437 447 476 407 413 416 440 462 470 494 495 472 461 442 417 434 426 398 449 464 445 458 460 449 459 466 409 452 414 459 465 424 455 460 400 437 416 455 432 441 441 420 436 431 461 427 464 456 444 429 424 459 406 426 418 448 423 443 441 418 443 417 431 459 475 455 419 438 412 427 458 421 418 454 428 439 432 441 404 460 413 396 422 416 433 422 453 433 471 422 410 407 425 395 466 432 397 432 445 395 426 433 384 429 420 444 444 446 409 417 407 421 432 465 451 456 436 427 434 460 417 438 421 433 459 403 428 417 411 426 410 409 417 397 451 397 446 407 437 364 450 409 405 416 410 409 396 460 395 458 416 433 382 434 435 412 379 417 429 396 436 392 421 386 365 412 393 382 434 395 434 417 382 397 392 391 420 422 385 389 405 391 402 428 420 418 440 394 407 380 405 431 407 390 442 433 392 375 402 408 423 431 420 392 393 410 403 418 432 391 401 396 400 419 398 419 366 413 398 379 410 376 415 428 388 418 403 411 402 399 375 398 416 383 382 361 382 401 394 387 390 400 400 445 430 373 429 440 430 396 393 358 421 399 444 415 415 399 411 397 380 377 408 381 423 433 383 362 384 408 386 399 399 375 420 408 398 409 412 352 375 400 379 391 423 402 381 397 374 372 384 402 390 393 359 375 379 379 408 394 415 369 390 402 398 382 381 346 401 391 412 380 370 365 357 408 394 361 390 421 371 438 382 389 390 394 377 371 388 393 389 382 351 389 344 371 378 368 392 405 368 370 379 364 368 361 382 383 356 375 406 390 354 393 392 364 411 391 353 396 389 345 373 420 385 363 369 367 348 386 382 365 391 371 348 389 353 393 389 392 389 367 382 363 379 387 375 396 363 348 361 406 357 380 380 364 364 356 341 362 397 305 370 342 381 388 364 360 379 336 382 315 367 362 356 386 400 351 334 342 376 347 350 384 343 348 360 342 376 372 388 363 327 347 330 367 343 367 384 321 338 356 356 368 401 348 352 308 381 351 336 323 355 349 331 352 387 349 349 347 349 339 353 375 343 338 347 349 339 365 347 340 349 360 381 365 377 361 362 337 351 379 352 378 368 355 386 347 315 360 355 325 412 354 328 343 353 309 339 329 338 353 346 354 353 340 342 365 339 352 373 315 354 340 373 360 334 346 336 338 317 339 363 378 352 343 348 359 340 306 327 307 358 363 347 305 330 363 348 346 337 351 349 361 327 329 316 344 358 360 323 347 333 340 348 345 334 365 320 349 328 350 333 325 351 326 341 353 333 318 329 340 317 341 335 299 320 333 313 341 338 361 368 346 354 358 328 351 364 340 304 333 321 338 337 330 339 324 394 312 361 363 348 362 331 349 318 358 360 330 313 346 345 307 327 321 329 339 339 318 312 309 327 361 297 337 307 308 330 324 323 315 330 328 327 313 314 315 323 338 357 322 327 305 315 295 313 321 352 370 339 352 331 347 312 318 329 334 305 351 335 321 316 324 296 340 361 334 306 349 324 300 318 346 308 316 315 299 339 334 332 270 332 341 322 309 322 349 305 349 322 282 303 309 302 325 301 308 338 314 313 327 308 316 308 306 289 320 307 354 336 336 327 305 339 297 333 341 316 307 299 343 300 329 328 320 314 305 306 326 306 353 314 313 285 291 305 303 321 293 307 357 295 308 329 332 308 307 281 327 281 287 307 309 329 300 318 296 305 328 295 286 308 304 315 295 289 326 303 316 313 311 363 351 317 281 285 308 316 289 317 310 315 325 309 299 275 317 276 298 266 315 323 299 300 305 281 310 287 309 291 324 311 327 320 301 325 343 299 293 307 314 308 326 303 281 296 296 296 322 283 297 280 327 305 298 311 301 282 314 276 302 317 351 246 306 304 308 303 321 329 270 326 267 317 315 301 314 309 312 309 288 278 330 304 334 310 319 282 282 327 306 295 282 297 303 317 284 301 295 272 294 293 283 278 321 309 307 283 313 303 265 301 279 286 257 281 276 315 298 306 288 320 311 281 266 281 269 319 272 274 265 297 262 315 307 293 304 249 291 286 274 281 291 262 295 279 294 268 308 263 260 247 290 274 278 296 299 290 293 289 248 323 292 311 299 282 281 302 302 280 278 292 286 291 285 258 315 294 272 267 274 307 285 263 288 278 297 332 291 287 307 299 271 261 293 300 303 282 276 262 311 273 292 302 279 267 298 268 282 269 286 339 286 275 309 267 297 262 245 301 279 256 296 286 282 286 270 300 288 297 315 285 258 307 293 308 273 315 280 275 293 295 262 278 280 259 320 282 279 287 293 300 317 307 251 292 302 280 316 286 267 290 296 332 294 327 263 294 289 305 293 299 332 271 306 288 298 321 282 292 313 300 279 324 313 330 285 312 322 304 343 301 291 365 320 320 314 317 331 321 368 330 331 335 310 339 382 360 381 357 331 376 389 412 409 403 401 431 423 455 470 449 463 468 484 470 505 537 548 543 572 595 516 596 609 670 663 717 714 722 762 790 831 864 894 917 995 1058 1038 1085 1156 1166 1224 1322 1270 1376 1456 1493 1453 1547 1596 1576 1611 1568 1517 1494 1436 1418 1378 1266 1229 1106 1016 878 887 848 750 715 714 661 618 559 564 503 444 442 438 450 426 389 423 390 400 362 352 378 357 335 346 368 367 345 328 309 373 328 335 303 328 322 315 337 312 320 304 293 291 305 298 318 275 316 288 313 312 320 269 338 310 315 281 299 281 278 286 287 293 282 266 316 271 285 286 315 300 275 306 271 271 276 312 305 266 287 263 286 275 280 269 272 296 259 268 292 302 285 286 297 261 309 249 296 271 238 306 267 291 277 256 272 250 246 256 277 260 291 279 263 309 269 265 263 285 288 240 284 296 275 296 290 256 270 278 288 278 271 270 256 286 267 285 246 280 210 250 274 260 274 259 276 259 264 271 269 257 270 248 257 240 261 263 276 229 241 264 265 247 233 271 267 243 279 260 273 260 274 260 256 280 257 277 241 260 249 248 293 250 261 266 275 277 231 268 247 256 233 260 225 267 277 266 272 240 291 281 289 273 276 239 258 243 265 264 258 229 286 234 275 258 268 244 311 262 308 238 296 282 263 261 240 276 215 247 218 250 239 287 269 274 247 225 285 249 277 265 225 226 245 275 223 243 270 260 268 290 276 275 246 295 238 273 223 280 229 258 261 264 249 257 249 243 262 232 239 257 248 242 244 258 256 276 295 259 241 298 264 269 257 256 269 265 268 278 223 260 295 272 259 262 218 287 237 257 258 231 226 246 226 263 259 257 245 243 266 242 257 247 250 273 272 261 276 235 266 241 267 244 210 240 257 240 283 247 285 264 314 249 249 257 263 238 260 250 258 271 225 278 239 244 283 270 267 247 249 236 234 232 286 265 263 259 247 258 256 246 240 260 237 277 286 243 266 235 245 236 233 267 256 246 264 237 258 244 288 271 287 267 238 282 242 256 235 269 269 269 249 242 237 245 250 289 273 261 263 263 248 246 230 243 225 258 251 271 246 248 235 219 276 308 239 274 258 228 289 235 247 247 259 256 247 276 258 273 239 266 274 257 231 291 273 249 228 273 256 271 265 282 256 257 257 247 234 257 267 241 272 247 244 235 264 260 272 231 262 268 233 236 241 229 276 233 280 264 260 268 266 233 273 227 295 269 263 240 246 259 244 245 278 247 291 248 239 225 246 244 268 217 270 248 245 235 236 285 269 257 273 256 291 218 248 231 269 248 248 259 272 233 264 259 263 228 249 262 222 229 244 218 207 261 236 247 256 239 228 243 237 235 267 246 258 240 247 221 223 274 232 245 244 262 266 260 222 262 261 265 228 221 266 261 258 247 238 251 248 235 237 288 242 248 232 235 236 230 259 195 251 239 247 256 262 248 232 237 258 228 236 225 239 274 260 241 261 237 221 241 245 247 236 243 226 258 220 245 257 234 246 233 208 215 250 240 244 215 264 237 202 244 289 230 223 205 240 277 261 266 246 244 232 218 230 238 230 244 236 246 257 240 222 257 236 235 244 236 238 241 241 232 265 244 245 240 267 235 213 234 235 237 227 214 230 243 245 243 246 226 219 240 229 237 239 236 212 239 258 221 270 219 237 218 226 243 215 223 214 245 242 215 241 223 235 235 231 222 258 242 223 217 229 243 236 240 239 234 245 223 238 226 233 226 251 207 216 240 210 265 236 224 213 230 223 222 247 215 233 233 239 262 250 228 219 199 235 227 219 246 207 264 204 229 230 223 221 239 225 235 240 228 274 227 215 230 225 232 233 257 231 226 219 232 225 231 238 243 242 221 244 234 214 213 211 222 222 224 204 239 243 220 239 238 229 245 226 228 221 209 240 234 235 231 239 212 226 201 236 234 228 251 208 216 220 203 265 222 246 232 226 239 214 219 247 194 209 202 211 233 217 232 227 186 222 227 256 221 203 222 250 215 219 220 208 214 231 231 221 213 240 223 206 241 214 224 209 224 236 226 192 236 257 238 211 206 232 224 210 246 216 226 237 236 239 199 230 215 220 216 203 204 215 225 204 202 225 210 201 222 214 244 231 195 226 223 211 225 220 231 198 200 195 197 234 212 205 215 225 211 216 210 218 201 191 239 193 211 224 215 206 215 219 188 207 219 209 224 256 202 206 193 199 234 221 198 208 229 217 228 196 244 221 222 192 189 207 201 223 226 214 216 229 222 191 190 205 214 209 210 223 213 211 218 196 217 228 214 249 203 198 223 229 229 201 231 224 226 200 214 192 189 195 196 222 214 199 213 219 218 221 233 219 197 211 194 198 192 198 215 198 190 203 198 213 216 219 204 210 195 196 191 200 194 214 214 211 197 190 231 229 217 216 204 194 230 197 211 211 218 196 190 208 236 212 210 219 199 181 231 233 228 207 202 219 200 207 203 233 204 216 202 239 212 185 176 224 223 224 216 201 221 204 221 232 234 213 210 208 225 200 185 223 258 217 241 184 211 211 219 238 223 226 206 230 217 210 261 197 222 217 209 228 226 192 214 216 201 214 234 213 215 196 234 212 190 212 210 201 203 224 199 192 219 204 207 212 199 211 181 186 173 216 207 196 219 226 214 219 197 206 223 194 200 199 225 194 197 200 204 210 193 232 179 210 189 206 203 212 195 196 230 202 199 186 201 205 197 212 188 192 186 206 181 185 189 198 193 199 191 212 214 214 205 220 198 210 194 226 194 217 213 211 199 204 178 171 204 208 207 196 203 206 212 204 201 207 204 192 180 204 219 195 191 205 193 209 174 196 220 203 193 196 219 203 186 192 222 233 213 213 173 195 188 186 218 196 221 196 221 191 209 191 204 212 217 189 200 180 194 208 212 202 190 226 188 204 176 205 195 197 212 207 214 205 180 202 205 197 202 227 201 217 204 228 200 195 202 220 239 182 201 204 191 205 222 197 229 198 196 198 201 214 203 228 226 195 224 226 228 229 194 221 214 203 212 211 216 210 197 198 234 212 204 208 209 210 187 189 199 218 234 209 208 214 206 204 181 227 199 198 210 215 205 225 221 201 192 229 215 208 242 213 231 215 247 248 225 217 218 246 240 245 211 265 260 248 237 238 248 235 247 251 231 267 286 244 271 275 312 308 301 309 332 314 333 309 356 385 379 372 367 459 472 466 481 500 472 537 591 584 639 674 717 740 766 785 836 833 874 971 924 936 985 1025 955 979 961 968 946 919 910 882 839 890 802 775 766 714 671 670 665 636 587 583 563 568 489 505 524 504 497 463 447 448 456 496 452 497 457 447 448 460 464 520 512 477 520 515 517 528 553 609 597 593 619 627 703 776 753 739 784 824 899 905 975 965 1037 1096 1074 1080 1132 1215 1271 1290 1323 1341 1342 1376 1418 1409 1439 1489 1495 1384 1480 1466 1459 1518 1510 1481 1528 1551 1521 1651 1639 1588 1701 1715 1682 1696 1713 1688 1777 1761 1841 1796 1776 1728 1626 1613 1690 1512 1437 1438 1330 1260 1249 1130 1121 1036 998 934 880 771 783 731 687 605 593 576 560 472 513 505 481 450 449 426 427 426 349 376 394 370 359 320 318 325 313 324 287 298 302 312 327 301 305 292 271 278 282 294 271 260 267 271 238 225 290 282 278 307 281 261 227 248 220 276 263 233 223 222 234 247 242 227 244 217 227 244 225 250 199 224 206 228 219 228 197 224 206 217 192 204 223 189 204 208 209 244 198 202 216 238 200 198 208 238 189 220 196 229 210 195 187 229 172 210 206 202 224 190 195 211 189 179 198 198 187 221 200 215 196 195 223 212 194 209 198 184 210 208 203 217 182 190 192 189 162 209 173 176 183 202 191 214 176 200 185 206 178 194 169 206 186 185 178 174 208 186 191 203 192 198 197 184 173 139 198 187 202 218 171 189 201 205 198 188 186 185 193 193 167 185 207 180 181 174 182 171 187 192 184 180 163 176 181 203 151 179 174 209 182 178 191 203 162 199 159 208 162 192 177 185 168 158 155 152 177 186 163 179 168 189 192 184 197 168 183 177 199 184 184 173 178 190 205 198 154 172 169 182 188 208 172 183 203 171 211 165 179 190 190 137 162 191 170 188 174 217 188 195 183 200 187 179 173 189 177 206 171 167 164 188 188 177 196 218 172 175 180 191 167 182 177 168 176 179 175 192 196 186 197 173 171 179 171 193 143 164 191 190 195 187 176 182 213 157 171 189 192 192 174 183 163 179 187 166 157 188 183 185 181 180 166 184 158 175 156 198 160 189 167 184 183 185 171 190 180 167 184 186 174 178 170 179 166 176 177 182 177 198 193 202 188 195 164 183 164 172 201 178 195 152 180 189 174 177 183 171 170 185 158 164 186 182 170 171 177 166 178 178 170 192 167 170 168 176 175 192 180 175 173 179 187 168 175 193 186 177 181 168 165 160 194 189 170 159 201 150 171 204 190 180 171 214 182 189 180 179 182 164 176 199 180 197 154 200 179 184 171 174 175 191 184 160 172 194 163 175 189 157 166 157 194 201 170 176 158 178 156 180 153 166 169 162 204 162 172 170 163 175 184 151 177 185 166 177 169 159 178 175 187 195 158 187 181 170 174 179 189 172 158 173 161 183 195 184 163 158 179 154 180 152 169 151 214 181 171 186 174 175 155 189 181 177 187 181 165 186 157 161 188 188 187 169 189 201 183 182 184 180 182 163 178 184 165 161 198 177 176 169 168 167 172 181 183 172 177 175 174 173 179 172 178 157 139 197 168 171 181 189 164 191 177 189 170 171 171 185 176 179 181 192 174 161 183 181 175 180 160 162 192 174 154 163 178 162 175 151 175 146 174 192 187 186 166 187 194 175 174 171 175 212 190 185 165 173 177 191 164 188 174 184 167 175 173 201 184 173 167 188 169 152 192 179 173 157 156 178 167 178 176 192 177 174 175 172 207 182 156 156 177 164 175 178 187 183 177 177 166 204 167 191 168 197 169 177 174 201 165 215 199 201 205 205 190 199 213 205 182 206 190 202 195 210 193 224 183 213 205 238 243 220 227 225 260 260 242 263 244 268 238 269 262 299 313 317 296 286 345 341 337 355 377 382 383 436 440 501 437 478 503 540 531 490 480 507 522 453 519 476 495 465 501 445 422 439 431 402 355 413 376 378 374 332 351 304 284 303 309 309 267 265 240 242 246 261 239 235 211 238 234 235 216 217 227 225 233 244 223 222 182 219 192 218 213 233 223 189 206 203 201 258 211 197 188 189 213 223 208 204 223 231 207 193 226 206 221 240 210 208 176 198 201 244 211 213 235 244 230 203 236 207 216 219 201 221 215 217 206 203 205 209 225 225 234 208 208 220 213 194 209 211 212 207 194 197 193 166 175 194 204 174 213 181 209 181 186 201 193 202 195 207 198 217 189 200 188 179 208 191 181 241 175 192 185 196 181 206 197 175 205 193 181 219 196 182 184 203 182 172 184 172 185 188 202 202 180 184 184 209 215 178 196 179 189 187 162 210 198 183 196 190 184 200 176 194 208 175 194 201 194 199 182 202 184 193 175 190 192 217 187 197 190 177 185 213 167 198 182 198 221 201 201 222 213 227 182 202 230 220 219 204 200 232 203 196 220 220 206 226 204 208 198 207 223 222 202 219 206 205 187 208 228 201 221 224 228 229 213 209 244 228 251 218 216 210 237 222 263 233 242 212 231 217 219 248 236 205 237 235 244 238 230 231 239 264 246 240 247 233 238 240 228 246 242 249 256 262 227 232 233 294 249 270 307 250 244 259 290 264 260 268 288 268 241 280 278 283 298 314 308 316 319 329 339 330 331 320 355 376 370 395 398 427 418 436 465 472 486 511 560 554 577 613 607 658 692 683 720 769 715 787 774 817 838 845 846 922 908 880 826 894 854 813 820 801 834 772 725 738 681 674 594 617 593 572 568 523 516 490 439 459 380 375 393 376 315 312 321 301 299 290 301 283 263 283 251 212 228 241 248 226 240 237 222 229 222 245 232 204 218 206 205 218 189 206 210 186 197 190 219 192 186 185 214 210 187 200 196 193 207 181 199 191 204 189 198 207 189 186 174 196 192 196 180 159 185 178 198 169 218 183 203 172 181 188 188 190 188 178 174 164 189 179 197 172 184 169 184 184 174 188 182 188 189 173 181 196 192 174 201 182 184 196 185 177 181 193 165 182 191 191 166 168 182 201 172 180 182 186 180 173 187 173 192 198 176 190 189 199 220 186 185 177 189 165 207 177 215 187 190 212 179 197 174 190 158 185 218 184 204 171 211 204 216 194 212 172 195 176 199 212 196 217 187 213 194 213 186 225 199 211 191 199 212 211 221 199 213 220 232 203 199 224 217 204 206 204 218 195 209 211 183 234 219 201 203 214 209 205 216 207 220 227 194 241 202 214 230 243 238 216 223 234 233 226 260 269 220 259 235 258 297 293 299 282 256 294 343 321 361 318 330 351 323 382 390 415 397 433 441 443 466 501 530 596 583 592 673 682 678 725 818 866 872 1003 997 1059 1108 1135 1194 1180 1285 1293 1346 1352 1381 1376 1427 1444 1483 1557 1509 1506 1538 1546 1531 1576 1554 1538 1564 1492 1536 1472 1511 1480 1399 1456 1447 1326 1323 1339 1300 1229 1182 1154 1171 1092 972 997 959 913 871 855 798 736 724 649 627 594 619 582 585 529 512 513 441 451 442 404 422 374 391 382 369 335 329 343 332 309 333 340 327 314 283 276 310 298 285 301 301 291 250 258 278 258 248 265 272 278 292 276 248 242 256 277 245 276 295 221 234 251 251 234 216 227 245 236 238 259 246 240 225 222 205 186 234 219 242 204 232 206 229 217 236 205 212 190 216 216 219 188 216 221 194 212 195 188 202 208 193 229 224 189 216 180 217 210 180 200 209 211 209 195 203 184 203 188 181 211 204 194 217 186 188 197 192 186 165 194 194 183 183 205 169 163 155 183 181 168 175 204 204 195 184 152 210 176 172 180 201 191 202 202 184 178 176 209 184 187 215 151 184 163 191 194 206 154 182 174 169 191 176 184 147 193 175 193 201 168 193 160 178 194 194 186 194 172 180 166 216 186 206 191 186 190 200 210 200 202 183 181 202 176 206 200 192 182 167 201 202 224 194 189 204 173 213 164 187 192 217 222 204 199 211 207 240 198 199 205 203 219 222 239 224 234 245 248 246 244 276 287 263 257 270 264 304 280 312 279 300 304 270 281 282 332 315 299 312 340 335 348 378 344 398 384 381 375 396 397 392 374 396 380 387 424 357 393 365 349 371 362 341 361 332 314 329 322 323 302 315 325 297 300 278 280 270 293 258 273 264 300 249 280 285 266 238 232 221 213 250 238 214 274 239 258 216 251 207 222 224 285 265 204 239 208 232 270 240 245 286 234 225 268 242 219 269 229 272 264 281 221 294 280 317 309 291 369 350 386 381 392 431 431 439 453 481 552 562 565 593 606 625 645 615 639 627 699 673 658 662 630 589 600 608 608 650 561 557 532 526 550 503 507 515 439 415 410 406 379 383 342 321 334 319 309 301 242 258 246 250 235 266 227 263 238 256 204 212 195 221 184 216 238 224 195 199 235 176 195 190 197 214 184 177 189 182 201 178 205 161 194 182 196 182 168 198 204 180 194 192 201 201 173 202 178 176 171 189 173 162 159 195 187 190 202 192 160 178 182 189 168 178 178 197 164 153 176 158 187 204 180 178 171 159 165 205 202 180 166 185 155 177 177 205 140 178 171 186 150 182 166 169 175 164 170 169 153 143 190 162 182 180 165 163 187 181 193 175 168 163 154 204 167 158 165 194 170 184 168 192 167 184 207 180 163 182 191 184 206 177 184 194 164 196 206 223 180 188 199 171 205 214 225 196 209 211 209 218 211 216 225 218 243 229 230 258 212 244 270 258 286 268 261 291 347 301 289 324 345 349 342 320 352 425 364 378 399 419 478 438 440 457 467 419 448 442 476 502 474 451 507 485 478 486 455 461 480 437 422 444 421 414 423 389 384 357 373 373 361 361 368 347 324 292 311 313 276 276 270 265 272 272 244 237 248 226 233 221 243 221 224 235 238 218 213 207 191 185 207 188 197 186 179 204 185 201 183 186 183 204 207 155 202 194 168 190 146 202 169 203 199 171 191 185 195 199 164 183 170 170 169 164 190 185 177 158 182 164 162 157 139 193 187 181 202 176 177 165 173 155 157 157 168 182 168 162 167 166 159 168 152 156 169 177 158 147 154 173 173 159 170 159 158 159 163 156 138 153 138 153 146 163 141 181 141 146 146 173 148 168 185 169 158 183 158 176 162 170 186 157 171 177 171 175 197 180 150 159 174 151 140 169 172 171 167 199 163 204 160 176 150 168 170 187 170 182 181 157 152 169 177 186 163 176 167 197 192 181 180 181 177 193 187 196 194 194 212 189 232 217 184 198 205 218 204 224 206 235 250 257 241 249 240 265 239 279 276 298 287 310 316 301 324 376 364 383 374 368 457 442 470 459 485 520 541 530 583 576 706 690 695 774 767 780 798 858 888 871 962 903 996 955 923 991 1083 1022 1006 974 958 909 910 903 867 842 879 823 824 796 791 718 778 710 653 616 621 620 596 548 577 514 491 489 446 443 455 373 359 364 313 359 347 307 299 322 279 275 289 249 242 236 229 228 240 228 227 232 202 227 207 207 210 197 191 202 213 188 211 202 187 188 216 206 207 206 192 152 162 219 185 174 166 181 183 180 178 176 196 180 181 171 185 175 158 175 160 150 171 190 182 177 172 162 163 179 165 129 163 144 175 154 165 142 153 164 176 172 156 185 155 166 156 167 164 158 164 205 204 138 183 146 168 179 159 179 182 173 154 153 167 181 152 159 156 169 145 165 146 152 153 162 180 152 136 152 136 162 173 147 144 135 156 151 168 173 155 182 139 160 152 175 152 142 145 152 148 165 152 160 161 164 149 157 147 148 147 153 149 156 160 174 178 157 172 158 171 134 187 149 177 133 143 181 162 179 163 181 148 169 145 159 151 174 175 172 175 194 194 184 185 158 170 182 193 165 200 193 187 185 228 200 217 180 232 220 226 214 220 228 242 271 221 267 246 247 273 294 274 281 320 281 351 327 332 344 369 341 399 379 404 446 408 466 439 477 510 459 489 469 474 506 517 511 475 494 488 472 468 473 469 478 489 478 453 478 429 459 442 455 428 437 400 336 367 363 356 341 346 365 334 323 300 341 302 285 278 277 297 271 297 260 268 258 225 266 268 296 261 256 223 244 237 265 220 235 239 249 233 261 283 259 230 256 258 256 299 286 299 263 289 285 303 356 296 349 345 363 378 384 414 410 440 484 496 510 506 599 631 656 706 703 810 806 829 847 984 965 1045 1073 1069 1183 1102 1185 1133 1205 1146 1150 1183 1157 1135 1107 1144 1115 1074 1050 1091 1063 1006 1030 997 973 911 881 885 794 785 753 663 705 676 619 611 568 524 509 482 434 481 454 447 398 384 357 361 317 300 290 305 281 296 268 259 251 270 215 226 235 228 239 215 199 218 200 192 200 204 180 199 208 188 193 206 157 198 198 190 172 177 196 158 191 182 182 179 157 198 174 161 165 177 167 157 161 172 174 142 170 158 174 141 161 135 164 172 162 158 155 169 167 151 134 164 151 152 148 138 181 159 140 150 154 144 147 171 146 169 160 150 143 145 167 150 181 183 152 173 155 145 142 142 146 150 166 176 170 150 139 172 155 146 159 154 152 151 162 148 166 178 138 169 141 159 156 159 187 165 142 169 158 151 130 154 163 167 161 182 161 153 180 180 178 176 191 191 186 159 188 157 187 186 179 196 183 191 198 208 193 191 213 192 202 185 210 187 187 207 181 192 199 208 168 196 163 227 177 199 186 184 181 212 151 173 170 188 183 197 166 167 142 160 161 184 172 180 196 154 153 155 175 161 174 174 153 153 157 189 178 171 162 139 142 163 174 168 158 152 169 183 172 148 149 160 154 154 171 171 168 175 160 178 185 202 157 187 183 183 149 168 188 173 163 169 161 185 194 172 197 185 179 194 202 200 167 184 186 194 183 202 196 201 212 211 208 221 200 214 200 196 211 234 227 202 208 224 210 205 221 209 179 214 174 190 249 227 258 221 218 209 197 226 208 197 203 208 226 201 188 202 221 226 199 208 194 180 200 199 173 197 209 172 190 181 181 168 200 173 162 173 183 156 146 172 173 174 191 149 163 174 162 197 171 150 171 170 159 191 155 163 157 168 167 152 185 158 153 170 153 167 142 141 166 148 182 188 152 161 148 172 149 152 148 142 155 173 172 177 164 157 186 174 141 142 168 176 140 147 161 162 162 184 150 172 159 160 169 163 147 181 170 149 156 153 166 147 174 180 175 160 165 174 168 141 154 144 179 162 158 160 184 172 154 154 173 150 177 150 151 143 176 149 146 142 149 178 168 143 140 155 145 169 157 163 148 152 153 151 165 165 148 161 134 163 147 169 163 154 146 159 163 153 158 132 152 141 175 155 145 184 178 158 183 157 172 152 190 175 145 182 154 168 156 169 163 182 160 162 178 170 181 176 197 169 168 156 179 152 182 192 158 149 183 154 150 176 170 166 170 164 189 178 166 174 169 171 164 160 169 147 160 164 187 166 153 155 157 182 181 191 169 188 171 182 170 155 157 172 154 153 149 191 160 170 172 190 147 167 178 164 160 149 158 144 166 171 145 155 164 155 154 175 168 156 162 146 164 165 165 166 156 171 158 161 172 147 171 155 189 170 170 173 160 157 171 148 172 191 156 160 174 169 172 150 167 157 173 160 167 172 151 154 167 175 188 159 177 140 155 176 158 139 167 178 178 172 162 161 172 134 161 142 176 154 193 144 180 168 167 150 180 167 167 162 187 172 177 154 176 163 182 156 161 160 141 170 169 152 179 161 178 182 171 178 190 181 191 161 191 163 172 162 195 192 194 192 191 200 185 189 191 180 211 199 212 233 201 199 220 226 206 208 238 201 205 222 211 215 219 220 234 236 245 239 223 221 218 224 195 237 223 218 241 202 213 214 210 215 228 225 194 206 192 202 230 190 203 220 205 217 186 201 204 205 204 180 206 189 169 178 190 199 209 189 208 178 179 201 192 198 193 199 170 195 174 179 187 189 173 170 196 176 169 173 161 165 180 160 178 180 169 158 168 186 172 171 169 183 160 191 177 178 165 166 172 172 188 155 159 161 169 198 156 177 171 138 179 182 156 178 165 155 167 164 177 151 174 140 159 147 148 144 180 171 168 169 149 134 171 151 192 165 179 180 147 146 155 159 164 185 180 184 168 179 168 152 205 164 155 168 167 178 174 204 159 190 184 173 177 155 159 175 187 171 189 174 178 169 193 195 205 190 176 184 177 179 173 175 200 196 225 203 180 189 193 206 180 198 228 215 196 227 215 215 222 206 210 222 245 237 220 245 249 229 222 260 244 271 274 249 258 263 271 261 258 221 263 270 267 256 284 270 216 272 245 270 243 241 269 263 280 264 248 229 240 239 262 223 246 222 202 233 229 213 232 212 202 184 218 205 190 180 196 217 174 186 204 185 186 179 188 166 171 170 174 178 172 157 156 165 147 148 146 153 133 159 180 150 143 151 165 149 144 178 148 168 153 161 132 151 151 148 173 136 145 133 159 134 155 151 136 147 140 170 154 161 141 140 156 145 150 133 141 144 149 119 135 133 132 158 144 135 141 135 130 141 136 132 149 152 135 153 148 150 141 143 126 160 146 137 141 132 129 140 130 141 130 141 160 138 119 144 138 136 136 136 141 139 153 148 145 115 136 118 154 139 143 127 149 127 130 147 143 140 135 152 122 132 144 141 145 150 126 168 130 148 115 141 141 139 142 150 127 142 135 127 129 126 157 145 139 158 142 142 140 148 149 157 141 151 132 148 161 150 154 161 157 149 137 146 171 159 176 145 153 126 149 164 136 152 134 176 135 159 159 134 147 195 149 164 145 146 153 136 179 165 141 136 153 151 139 167 128 162 146 136 142 155 147 128 153 124 161 120 140 145 153 130 139 177 145 118 143 154 170 144 148 129 142 153 119 145 114 131 121 132 135 150 143 154 139 134 146 138 152 163 150 124 146 155 154 139 116 133 143 140 138 127 123 137 132 143 145 156 143 152 119 122 144 141 153 117 144 147 139 135 126 158 137 128 116 157 140 116 138 129 149 139 128 149 168 148 154 134 147 138 148 122 133 137 137 148 155 139 136 120 134 144 118 140 144 126 162 137 117 136 142 144 143 136 140 138 129 138 139 143 142 115 129 131 120 128 143 128 140 147 125 126 176 154 148 140 142 146 113 143 161 116 143 159 146 126 145 147 157 161 146 136 138 143 116 128 141 158 155 151 148 140 152 144 156 152 125 154 116 140 148 163 161 148 139 141 141 160 159 146 128 148 139 162 151 173 155 161 163 179 171 144 159 172 171 186 194 173 167 192 168 163 193 189 206 184 201 186 211 203 196 195 211 268 245 261 270 294 289 296 338 342 364 326 407 418 425 398 405 433 447 480 479 517 496 499 542 525 519 539 521 540 580 526 545 554 513 507 518 544 515 486 476 521 482 496 460 440 522 439 448 440 421 393 412 419 347 380 326 375 351 317 267 296 306 304 291 281 268 226 258 225 236 217 192 207 197 214 197 211 187 206 179 206 200 150 160 161 197 199 166 160 176 157 170 178 171 167 167 166 154 176 159 147 148 159 159 163 123 155 163 169 169 132 164 139 161 146 151 162 152 145 153 153 156 151 148 163 143 164 163 155 171 155 146 141 153 168 172 161 146 159 153 171 180 155 153 177 196 157 161 193 184 181 159 157 173 190 185 187 176 194 200 179 200 173 196 195 193 195 188 215 240 218 218 220 212 212 193 231 212 207 223 238 230 231 222 222 216 210 220 228 258 262 240 240 241 250 256 261 240 263 249 258 278 256 265 239 266 269 268 269 271 298 290 288 299 299 271 313 293 297 295 280 321 289 301 296 323 311 322 274 299 322 330 301 348 315 317 350 332 317 287 292 306 290 320 314 268 301 278 310 325 304 261 291 280 275 256 234 273 257 257 264 263 268 232 270 249 244 242 246 235 208 224 209 230 197 215 232 202 161 212 182 201 195 182 187 182 186 176 168 170 182 163 149 175 184 171 144 148 167 146 181 173 181 161 178 160 140 157 167 167 176 138 156 150 149 132 157 157 147 161 151 160 133 143 144 136 153 130 134 134 166 136 147 139 169 135 128 146 169 135 150 130 128 136 144 128 133 122 128 145 132 162 130 141 135 147 138 137 157 151 145 123 146 133 131 139 139 158 106 140 145 168 121 127 111 156 142 148 128 132 136 116 149 134 116 119 129 126 138 129 141 149 127 126 139 156 147 125 123 126 124 128 138 135 125 136 129 135 142 149 107 158 129 123 150 133 144 130 146 141 123 129 133 142 128 134 116 136 111 133 148 128 123 135 141 123 115 128 122 127 120 143 138 154 111 141 130 126 147 114 140 110 137 121 132 124 114 143 139 127 117 129 122 122 138 110 133 125 134 125 134 122 157 133 138 147 128 128 134 146 127 123 142 135 137 130 141 143 141 113 142 146 131 122 144 133 132 129 120 117 142 136 109 117 144 127 130 130 116 145 132 141 145 118 148 144 122 125 126 120 156 127 131 150 93 121 137 128 127 118 102 135 139 156 127 131 148 142 131 135 131 132 129 133 139 124 120 139 129 123 138 139 143 109 159 144 138 124 128 125 150 142 128 143 141 137 128 124 150 135 140 136 141 130 145 141 156 126 135 119 142 153 170 127 126 153 145 150 127 138 132 150 162 143 131 121 137 142 136 152 131 127 144 154 146 126 137 159 145 170 134 133 145 137 150 125 129 155 137 143 159 146 142 137 127 119 150 126 139 146 165 118 140 146 148 164 140 119 137 158 140 158 135 147 154 136 164 136 140 167 119 142 163 134 163 135 134 137 133 126 140 151 145 135 135 148 156 147 136 151 160 145 159 148 151 139 168 144 130 132 159 168 139 158 172 169 147 160 131 162 135 151 163 165 175 154 141 164 164 159 153 169 181 177 161 167 184 148 179 161 166 175 163 178 177 190 167 183 204 168 190 180 207 183 178 183 201 203 198 205 216 195 212 227 228 251 228 272 216 237 261 247 256 268 298 288 291 296 345 364 357 379 392 431 420 465 476 490 522 511 538 594 628 599 671 639 714 712 797 851 783 838 860 888 803 928 888 863 921 892 875 929 891 959 918 943 867 913 895 916 952 874 906 932 892 886 824 878 825 804 920 799 847 774 848 870 775 776 723 800 730 712 674 689 617 670 637 652 614 642 553 530 567 531 502 508 501 467 457 464 411 403 391 403 408 392 362 359 378 374 357 312 346 293 330 287 277 300 298 282 275 262 275 314 265 260 273 267 245 234 226 244 223 236 256 213 232 202 213 216 230 234 190 214 208 215 195 197 215 227 219 211 200 226 216 202 210 196 208 208 212 227 201 189 179 191 216 208 211 203 214 216 233 205 200 184 197 222 178 211 170 201 200 200 217 193 169 172 203 180 175 189 195 176 188 210 199 162 165 204 200 185 187 161 145 170 176 164 175 167 147 160 140 176 162 151 152 162 172 164 157 154 161 147 146 157 155 163 168 134 156 158 144 153 173 150 120 157 146 147 156 152 146 144 151 142 134 144 152 128 143 154 134 140 137 110 128 150 146 146 139 151 141 150 145 120 125 141 148 153 150 152 148 151 153 147 149 161 153 140 138 159 149 131 170 153 168 161 160 134 170 141 135 160 152 155 149 147 155 145 164 154 157 158 163 151 162 154 166 144 137 148 156 144 153 156 141 154 147 141 178 141 126 160 169 154 149 157 137 154 142 162 160 148 144 131 164 132 139 157 151 150 160 121 152 162 128 145 163 168 157 148 129 135 157 156 164 157 170 161 166 152 146 154 158 145 171 147 159 166 151 165 138 153 170 173 169 162 160 163 155 178 179 186 156 181 176 190 175 156 171 175 176 178 158 150 171 160 181 154 176 177 173 136 163 168 156 181 168 152 147 161 173 186 164 163 161 186 172 163 172 171 173 156 166 157 147 152 160 164 176 170 167 159 173 176 158 185 151 153 167 132 168 154 147 177 142 161 146 135 159 198 163 168 164 155 175 160 181 176 171 169 193 176 190 196 157 178 197 160 183 190 171 202 205 189 192 199 173 205 210 206 233 236 207 230 232 216 242 211 239 208 233 251 231 229 261 265 265 282 280 282 300 274 289 298 292 334 330 331 348 349 362 360 414 400 409 417 442 430 464 443 459 475 525 485 524 500 516 510 530 568 530 588 565 559 537 594 538 582 617 540 612 570 567 585 582 540 533 529 524 507 505 505 523 520 466 509 486 481 464 431 445 458 450 439 440 378 447 439 406 358 353 339 386 389 350 348 346 318 339 289 331 312 334 287 282 278 305 298 271 304 268 307 261 299 280 287 245 287 242 275 264 229 284 242 256 250 206 249 271 242 260 262 227 228 245 256 265 224 235 244 210 238 237 261 227 263 250 231 225 223 213 224 217 213 256 217 212 219 225 217 236 222 233 235 205 224 198 222 224 206 211 188 184 204 232 201 205 218 212 184 181 181 196 205 162 204 188 193 168 207 188 169 179 186 162 160 171 153 162 165 176 144 169 161 174 180 171 170 167 165 146 174 187 153 145 153 152 164 157 153 184 165 174 164 144 181 153 148 139 135 163 168 144 149 145 133 162 166 145 153 160 141 144 158 122 136 149 153 153 149 127 171 147 119 154 141 139 179 150 149 142 148 144 171 144 143 134 166 128 153 143 139 142 133 145 129 145 143 168 157 153 177 127 158 127 153 154 151 131 174 142 146 140 148 157 152 145 158 147 126 151 158 141 147 133 122 163 162 126 122 168 146 179 147 142 141 141 154 154 150 120 175 128 144 136 150 137 152 148 146 145 134 144 147 150 139 141 145 152 136 159 138 140 140 158 120 165 144 140 164 132 177 135 150 127 139 154 131 151 137 146 158 122 148 136 141 134 143 160 161 126 167 149 145 159 125 152 133 156 130 145 143 129 133 145 158 135 142 135 122 146 143 150 177 148 178 171 147 144 147 161 169 146 149 137 181 159 144 149 182 187 161 157 169 150 150 167 175 177 159 182 153 182 175 195 164 202 170 165 181 175 168 192 168 183 188 185 173 202 197 186 188 212 165 194 183 190 177 188 222 206 211 179 182 192 218 189 207 203 184 221 216 191 217 233 211 221 212 226 199 201 220 230 222 189 198 230 229 227 234 224 226 242 223 258 244 217 224 231 211 241 242 225 261 225 242 221 233 201 215 243 265 242 228 211 215 197 241 236 197 240 193 212 211 210 184 202 180 230 200 197 200 197 176 192 187 175 186 172 197 198 182 173 180 162 160 196 169 183 172 171 171 192 178 164 190 189 150 160 180 156 148 158 148 186 161 138 161 183 174 157 151 155 163 170 177 172 155 151 136 167 168 179 172 141 137 149 155 156 153 189 153 157 186 177 173 162 165 170 200 142 172 173 167 181 188 179 189 180 192 174 219 201 188 180 192 179 213 188 200 212 197 204 238 200 220 217 234 249 264 257 259 244 259 267 257 304 311 283 309 303 291 322 321 355 332 334 355 332 327 358 332 345 359 387 355 328 364 346 375 362 333 366 346 359 334 324 296 319 319 330 331 335 328 297 305 317 324 290 291 282 282 300 317 285 282 280 270 294 263 267 249 243 261 245 264 261 242 205 209 210 213 203 210 205 191 192 222 195 229 186 193 185 187 183 187 196 192 181 156 188 184 178 171 155 162 177 177 163 184 158 176 168 163 149 154 172 175 177 173 176 165 163 179 156 145 160 169 165 180 173 158 143 180 151 171 153 161 159 171 173 160 180 183 150 177 172 176 170 150 168 139 158 181 172 162 168 165 180 174 145 163 159 173 170 176 186 176 191 176 187 157 208 170 193 196 163 170 178 157 196 177 207 190 196 196 228 191 174 184 158 190 203 175 181 196 188 196 197 195 208 206 203 194 188 182 198 186 212 205 187 191 178 229 198 205 177 207 208 191 205 180 202 201 193 177 189 199 191 174 194 187 200 208 164 177 211 193 195 177 195 208 190 189 208 206 200 194 200 226 216 222 185 178 202 165 183 186 220 185 217 176 185 192 187 217 203 202 199 213 200 194 214 180 240 221 222 222 235 232 247 259 270 213 261 261 238 221 267 248 265 269 263 274 284 270 261 289 306 306 307 296 336 346 335 372 335 368 366 376 378 386 396 475 421 401 409 464 437 444 473 481 502 508 492 512 494 484 471 474 515 492 463 484 463 473 505 433 450 467 472 448 439 437 430 435 388 425 443 435 434 443 420 433 399 441 400 398 405 343 384 369 353 367 332 369 347 333 332 333 295 303 291 259 280 300 282 308 263 260 209 260 217 248 233 235 231 250 250 244 242 231 256 233 204 223 230 264 261 229 197 230 240 221 196 245 229 208 270 239 235 208 227 212 265 190 207 230 226 261 226 225 223 220 257 216 245 211 217 237 224 218 270 225 230 240 216 247 237 235 261 236 260 262 214 235 205 230 258 221 234 242 236 232 217 244 256 265 243 237 231 237 224 237 228 204 235 240 208 202 214 207 224 228 208 224 244 228 230 189 230 186 224 227 199 212 198 229 208 214 166 215 208 220 207 204 197 206 213 211 179 187 195 207 157 188 183 209 179 197 194 183 180 177 187 191 146 199 189 174 195 185 196 184 189 162 184 160 171 198 193 183 184 180 179 192 207 186 209 205 180 179 203 196 227 209 214 183 231 227 226 212 227 198 232 242 227 263 245 294 302 341 292 301 343 379 368 426 434 427 441 423 425 481 507 495 527 507 565 546 561 600 558 568 555 579 549 537 607 549 597 561 503 574 557 525 538 472 504 505 532 499 471 517 482 460 489 451 473 434 469 464 424 445 471 425 406 418 392 389 375 403 354 335 355 338 314 298 292 315 285 284 246 272 245 233 242 214 225 198 206 209 232 211 215 204 207 182 181 170 202 168 177 195 178 177 175 158 146 164 167 155 158 144 164 151 160 157 160 169 173 179 175 154 140 158 147 157 135 171 144 159 168 136 164 130 152 160 131 153 157 133 159 146 125 157 130 151 145 156 152 149 124 146 137 133 133 129 136 131 162 135 131 148 144 139 147 152 138 149 162 144 148 134 136 127 161 151 137 156 124 122 131 133 143 136 127 140 157 126 146 173 144 117 136 138 131 143 172 125 136 144 131 153 155 142 136 147 126 149 134 152 152 136 127 153 140 140 148 150 138 141 144 131 144 143 142 166 154 163 157 160 142 195 175 145 144 170 161 168 163 158 156 175 154 166 162 156 176 174 165 171 175 156 182 173 184 187 182 171 158 191 201 191 182 187 176 164 211 184 165 193 171 196 192 176 166 194 192 187 175 179 191 192 183 182 175 198 196 200 185 203 183 173 186 165 165 196 164 167 149 171 169 160 140 179 170 143 172 173 168 157 182 173 206 172 150 154 156 143 145 165 169 158 158 150 142 141 147 160 153 175 141 148 170 145 149 169 163 144 147 147 147 171 150 142 154 170 141 184 187 171 150 149 177 154 152 153 169 169 161 158 165 163 175 155 173 157 188 199 171 175 200 195 198 197 208 192 186 216 188 189 191 217 201 219 228 219 226 201 227 234 259 216 258 249 260 228 226 227 237 261 246 285 244 263 232 269 266 263 281 250 292 267 268 276 277 266 248 318 247 314 261 290 321 271 268 283 281 297 268 284 264 311 280 288 291 291 282 263 283 270 283 265 264 228 245 264 241 261 293 296 300 260 231 271 230 263 263 258 248 234 197 242 256 239 260 226 227 202 249 219 201 210 221 222 250 208 203 212 212 214 229 225 194 200 190 169 204 170 182 196 199 188 191 178 194 207 183 175 216 196 174 187 164 154 194 171 177 169 180 161 174 147 204 168 169 176 172 162 171 168 149 172 172 161 144 161 171 176 148 156 149 148 142 182 158 140 145 149 144 168 129 152 147 131 135 136 143 138 158 134 161 159 146 145 147 133 148 164 154 152 151 149 140 147 144 144 133 146 140 159 152 143 141 150 160 125 143 147 132 149 170 149 131 150 166 151 127 136 144 155 140 130 155 152 144 137 156 161 138 159 131 135 151 169 150 171 149 170 146 151 165 124 143 140 168 149 163 154 164 140 141 168 164 164 146 166 131 155 151 175 152 160 125 142 157 128 149 175 143 133 150 137 154 153 151 137 151 136 133 156 138 127 140 147 141 147 153 158 141 160 144 163 127 141 152 133 143 145 148 130 145 127 153 136 147 131 127 139 125 148 126 144 131 145 143 145 134 148 123 133 140 120 135 117 142 161 121 132 129 145 125 144 129 140 123 149 142 128 112 148 132 145 125 144 141 121 142 143 137 126 118 116 141 131 131 124 131 138 130 140 136 142 139 122 126 147 126 115 112 130 142 132 121 148 136 136 143 145 150 144 120 129 124 129 130 111 137 131 118 119 127 112 135 127 126 124 112 117 120 136 119 130 132 117 131 150 143 146 135 140 159 92 128 123 142 142 147 126 124 127 122 129 126 127 134 119 149 110 124 136 127 119 126 127 109 134 122 118 148 119 149 141 128 128 137 114 124 136 117 117 136 127 129 147 137 122 140 139 132 135 118 104 150 137 132 125 136 115 135 123 131 126 125 128 137 142 124 119 123 127 124 105 129 149 128 135 135 148 140 142 142 138 129 128 117 144 135 125 135 127 144 127 157 117 130 132 135 137 121 154 132 150 163 157 141 135 152 137 159 142 154 127 132 124 138 132 144 140 174 149 140 143 151 159 144 157 169 167 142 166 161 152 149 168 154 164 151 156 163 169 186 157 169 208 153 149 168 169 176 198 205 176 180 199 203 196 195 213 196 196 217 209 224 202 217 180 214 207 235 231 223 230 211 246 258 226 245 249 246 271 207 275 273 291 260 285 275 289 250 246 277 286 270 247 261 263 299 275 271 271 293 258 264 261 274 245 283 276 283 298 294 287 281 286 281 296 241 291 281 296 288 290 273 285 276 292 277 304 235 275 261 245 263 257 239 267 283 248 268 280 235 259 244 260 237 237 235 244 241 249 257 228 239 264 249 276 230 265 273 261 280 280 283 267 224 265 234 248 232 285 237 239 267 240 244 248 261 237 264 238 267 234 267 235 237 249 260 241 234 242 227 242 241 220 235 266 283 269 213 266 249 257 217 240 223 243 224 227 223 216 212 211 242 245 216 213 227 261 213 207 223 232 218 219 237 219 206 199 205 200 192 206 233 191 219 170 192 195 204 194 203 191 204 187 186 188 211 202 160 184 147 197 200 191 186 173 214 165 190 174 183 172 175 170 172 160 168 140 185 155 155 164 183 151 160 181 171 162 153 163 142 149 140 169 153 159 155 144 156 137 157 160 123 144 135 148 149 139 154 117 135 142 140 140 146 175 158 141 139 144 139 151 157 139 159 139 138 170 155 160 150 136 146 137 152 144 144 157 143 153 143 159 134 147 144 139 129 128 140 152 135 153 132 139 131 151 147 146 142 149 161 146 144 136 148 136 140 150 125 135</intensities>
			</dataPoints>
		</scan>
	</xrdMeasurement>
</xrdMeasurements>
