<?xml version="1.0" encoding="UTF-8"?>
<xrdMeasurements xmlns="http://www.xrdml.com/XRDMeasurement/1.7" xmlns:xsi="http://www.w3.org/2001/XMLSchema-instance" xsi:schemaLocation="http://www.xrdml.com/XRDMeasurement/1.7 http://www.xrdml.com/XRDMeasurement/1.7/XRDMeasurement.xsd" status="Completed">
	<comment>
		<entry>Configuration=Conf. Reflection-transmission spinner, Owner=User-1, Creation date=2/28/2018 8:43:02 AM</entry>
		<entry>Goniometer=Theta/Theta; Minimum step size 2Theta:0.0001; Minimum step size Omega:0.0001</entry>
		<entry>Sample stage=Reflection-transmission spinner; Minimum step size Phi:0.1</entry>
		<entry>Diffractometer system=EMPYREAN</entry>
		<entry>Measurement program=C:\PANalytical\Data Collector\Programs\sample-1.xrdmp, Identifier={BB6687EE-8248-4E06-B0C7-67735DEB5D7E}</entry>
		<entry>Batch program=C:\PANalytical\Data Collector\Programs\P3.xrdmp, Identifier={B7A02020-5C58-4AD1-B2DF-076289CE0779}</entry>
	</comment>
	<sample type="To be analyzed">
		<id></id>
		<name></name>
		<preparedBy></preparedBy>
	</sample>
	<xrdMeasurement measurementType="Scan" status="Completed" sampleMode="Reflection">
		<comment>
			<entry>PHD Lower Level = 4.02 (keV), PHD Upper Level = 11.27 (keV)</entry>
		</comment>
		<usedWavelength intended="K-Alpha 1">
			<kAlpha1 unit="Angstrom">1.5405980</kAlpha1>
			<kAlpha2 unit="Angstrom">1.5444260</kAlpha2>
			<kBeta unit="Angstrom">1.3922500</kBeta>
			<ratioKAlpha2KAlpha1>0.5000</ratioKAlpha2KAlpha1>
		</usedWavelength>
		<incidentBeamPath>
			<radius unit="mm">240.00</radius>
			<xRayTube id="1010048" name="Empyrean Cu LFF HR (9430 033 7310x) DK427586">
				<tension unit="kV">40.0</tension>
				<current unit="mA">40.0</current>
				<anodeMaterial>Cu</anodeMaterial>
				<focus type="Line">
					<length unit="mm">12.0</length>
					<width unit="mm">0.4</width>
					<takeOffAngle unit="deg">4.4</takeOffAngle>
				</focus>
			</xRayTube>
			<xRayMirror id="27020009" name="Bragg-Brentano HD" hybrid="false">
				<crystal type="Graded" shape="Flat">BB/HD</crystal>
				<acceptanceAngle unit="deg">0.800</acceptanceAngle>
				<length unit="mm">55.3</length>
			</xRayMirror>
			<sollerSlit id="21010002" name="Soller slits 0.04 rad.">
				<opening unit="rad">0.0400</opening>
			</sollerSlit>
			<mask id="22030009" name="Fixed mask 10 mm">
				<width unit="mm">10.00</width>
			</mask>
			<antiScatterSlit id="22010003" name="Fixed slit 1°" xsi:type="fixedAntiScatterSlitType">
				<height unit="mm">1.52</height>
			</antiScatterSlit>
			<divergenceSlit id="22010005" name="Fixed slit 1/4°" xsi:type="fixedDivergenceSlitType">
				<distanceToSample unit="mm">140.00</distanceToSample>
				<height unit="mm">0.38</height>
			</divergenceSlit>
		</incidentBeamPath>
		<diffractedBeamPath>
			<radius unit="mm">240.00</radius>
			<antiScatterSlit id="22090010" name="AS slit 8.0 mm (PIXcel)" xsi:type="fixedAntiScatterSlitType">
				<height unit="mm">8.00</height>
			</antiScatterSlit>
			<sollerSlit id="21020003" name="Large Soller slits 0.04 rad.">
				<opening unit="rad">0.0400</opening>
			</sollerSlit>
			<detector id="7010019" name="PIXcel1D-Medipix3 detector" xsi:type="rtmsDetectorType">
				<phd unit="%">
					<lowerLevel>25.0</lowerLevel>
					<upperLevel>70.0</upperLevel>
				</phd>
				<mode>Scanning</mode>
				<activeLength unit="deg">3.3482</activeLength>
			</detector>
		</diffractedBeamPath>
		<scan appendNumber="0" mode="Continuous" scanAxis="Gonio" status="Completed">
			<header>
				<startTimeStamp>2025-12-26T14:16:55+08:00</startTimeStamp>
				<endTimeStamp>2025-12-26T14:28:24+08:00</endTimeStamp>
				<author>
					<name>User</name>
				</author>
				<source>
					<applicationSoftware version="5.5a">Data Collector</applicationSoftware>
					<instrumentControlSoftware version="7.9j 20171025">EMPYREAN</instrumentControlSoftware>
					<instrumentID>0000000011214615</instrumentID>
				</source>
			</header>
			<dataPoints>
				<positions axis="2Theta" unit="deg">
					<startPosition>6.00558257</startPosition>
					<endPosition>75.99655438</endPosition>
				</positions>
				<positions axis="Omega" unit="deg">
					<startPosition>3.00279129</startPosition>
					<endPosition>37.99827719</endPosition>
				</positions>
				<positions axis="Phi" unit="deg">
					<commonPosition>0.0</commonPosition>
				</positions>
				<commonCountingTime unit="seconds">13.770</commonCountingTime>
				<intensities unit="counts">508 540 601 581 532 576 559 551 514 565 539 517 545 539 565 539 519 554 556 532 554 541 525 579 515 540 540 547 572 529 538 558 550 541 494 538 558 590 494 516 539 524 534 504 552 521 481 533 564 576 563 518 566 545 533 525 541 530 466 508 567 533 564 537 535 529 482 514 521 524 537 543 551 474 513 521 506 546 530 568 546 569 536 578 533 512 564 523 497 506 528 547 496 501 508 518 553 548 557 497 512 507 467 501 501 532 525 561 540 540 477 517 498 502 522 565 514 498 514 511 536 485 544 522 482 527 531 511 509 491 507 480 502 492 551 506 524 531 467 512 528 526 565 520 518 498 514 557 500 512 503 477 515 492 510 489 505 505 543 459 507 494 530 479 524 485 507 480 548 505 547 525 533 517 513 500 476 521 497 507 524 524 517 487 529 492 464 460 501 457 519 473 516 477 483 512 498 476 517 518 499 479 461 467 506 488 501 502 490 513 499 524 481 507 508 454 517 504 506 507 488 484 504 508 508 493 529 447 482 496 495 528 509 539 528 461 462 539 498 487 485 474 514 511 500 480 465 477 481 517 494 486 474 489 458 471 467 462 493 543 528 463 535 482 480 475 526 482 494 478 492 531 492 477 483 504 526 503 488 534 506 480 526 469 490 472 501 487 537 499 485 489 492 498 483 461 478 518 541 484 514 495 463 464 511 472 477 484 507 478 494 510 482 456 476 537 474 554 497 494 487 444 511 468 514 541 510 472 480 463 512 476 513 489 488 472 474 458 514 511 513 477 464 482 485 480 487 487 439 468 464 477 492 449 496 478 463 454 478 498 445 449 475 461 477 453 524 486 511 486 483 490 466 464 512 504 488 466 475 468 462 479 462 482 462 469 456 464 517 453 504 455 465 481 462 508 459 484 511 409 510 444 473 480 470 484 456 456 437 439 457 448 454 478 470 486 481 455 435 483 489 495 456 498 478 481 475 462 497 475 442 423 441 426 491 494 497 437 489 453 470 462 510 479 433 485 456 460 462 429 481 493 466 493 454 503 474 467 478 467 455 500 467 438 447 459 474 465 462 499 505 441 467 506 481 481 434 468 451 436 462 462 494 468 465 456 452 425 465 493 437 479 478 458 483 420 414 472 463 429 445 460 431 474 452 453 478 446 469 440 487 432 501 490 427 428 449 467 470 432 463 429 497 434 465 489 480 449 438 457 463 483 429 464 514 437 470 437 435 447 437 451 470 408 460 446 451 473 428 447 448 434 473 497 475 476 444 412 407 445 448 483 389 457 448 421 452 423 452 440 463 413 438 427 457 461 460 467 395 434 451 437 430 450 445 458 426 443 433 436 427 419 483 451 469 440 454 433 479 429 481 440 418 442 473 451 474 436 475 492 467 442 447 447 425 433 425 442 426 456 445 406 444 443 451 424 443 421 435 424 411 400 421 453 421 438 440 392 453 429 465 445 436 440 503 444 425 442 420 432 418 452 477 428 477 422 421 436 457 447 398 415 429 427 453 431 413 450 441 426 431 454 422 415 427 392 449 451 386 439 411 441 428 416 441 423 410 425 392 406 427 421 396 399 395 431 425 416 471 431 418 393 426 414 445 413 445 405 405 368 462 434 438 434 415 417 402 394 421 421 437 419 433 412 425 364 415 369 441 407 420 435 400 409 434 418 453 422 390 433 392 423 423 438 432 419 421 424 377 413 390 438 405 419 395 428 423 436 447 421 409 394 383 431 423 437 415 417 410 399 427 414 445 409 444 444 420 415 441 384 407 408 435 412 420 418 411 409 390 408 396 385 409 429 412 407 414 393 410 383 398 441 418 413 403 384 444 429 373 433 426 424 425 439 429 401 393 405 419 414 437 399 434 403 405 355 404 387 379 390 371 365 349 417 368 432 372 449 389 374 382 409 385 378 363 392 411 399 381 409 388 407 406 409 404 389 404 371 395 383 380 376 416 372 414 417 407 415 402 385 376 372 378 408 414 380 378 404 401 397 419 370 410 418 380 388 371 422 444 427 411 403 372 418 393 404 400 409 377 374 386 366 405 377 463 404 406 391 382 378 380 345 429 366 393 375 376 379 409 382 377 370 364 387 398 396 421 385 403 387 374 413 383 372 413 395 403 368 373 406 389 372 408 372 360 412 368 395 371 365 355 384 401 388 402 371 411 370 368 331 380 390 384 362 396 373 364 390 382 372 378 403 392 371 346 346 362 395 409 360 396 374 393 376 374 362 375 402 371 350 339 386 360 379 402 393 370 373 365 375 372 363 377 369 356 367 394 374 370 398 376 334 386 364 355 397 384 397 365 392 345 367 337 373 370 411 362 358 376 365 362 347 360 360 341 334 356 339 392 354 375 351 352 385 314 350 365 386 330 316 317 374 337 408 363 341 330 355 363 321 386 359 329 358 313 350 356 369 360 349 365 334 357 361 370 322 366 346 358 352 356 341 357 339 327 370 372 336 362 338 353 376 349 354 371 350 344 359 365 323 337 341 371 345 347 361 361 335 351 335 331 359 329 337 363 344 358 378 349 362 351 350 368 360 313 363 365 346 343 364 383 343 353 325 333 370 344 331 350 356 395 349 336 355 347 352 333 355 360 357 350 344 353 356 328 354 363 353 351 324 320 352 346 344 351 386 339 409 366 309 341 335 347 359 340 313 342 331 345 346 367 309 335 370 353 341 332 335 383 345 348 313 326 356 325 313 308 318 341 377 340 288 369 335 315 359 302 344 343 311 310 336 333 328 356 345 323 356 350 318 355 322 342 326 325 338 334 347 335 343 329 345 345 355 325 334 342 341 273 354 348 358 338 321 339 325 331 327 346 294 316 339 373 331 335 363 358 338 326 348 328 299 311 321 358 337 327 335 332 351 350 304 310 323 357 341 288 318 360 318 328 297 326 303 322 319 314 315 338 301 312 314 334 362 310 323 330 332 317 337 342 335 322 344 309 348 328 354 321 321 336 309 301 353 324 321 332 348 328 349 355 298 321 320 347 343 326 328 323 311 320 334 340 309 308 331 328 320 313 337 314 310 345 341 352 347 326 320 346 313 335 314 340 307 319 305 304 355 299 339 332 325 330 309 344 321 347 328 352 334 313 317 329 325 309 301 329 345 340 331 345 342 350 318 314 289 311 324 332 348 341 342 325 366 319 306 323 320 338 317 295 353 304 330 350 339 303 315 344 283 299 312 337 293 328 306 330 313 345 343 337 295 309 339 328 351 301 347 342 293 316 338 342 300 275 327 357 290 310 342 319 320 308 330 319 328 309 294 323 316 338 335 291 358 338 326 313 333 315 286 314 314 321 332 345 334 301 321 322 315 311 363 301 295 314 314 289 337 316 324 313 340 328 311 296 320 320 319 319 319 302 306 323 292 343 304 327 285 323 323 303 309 304 315 300 346 293 308 322 310 324 322 334 349 308 317 313 323 303 318 297 288 328 317 318 330 324 305 283 317 299 344 324 322 339 336 320 331 316 333 304 313 288 330 333 331 326 305 305 283 336 299 319 311 325 294 321 336 333 312 289 326 313 311 296 327 312 332 314 316 314 320 319 356 310 313 289 299 344 338 322 284 300 312 317 307 314 316 313 315 321 289 307 314 289 321 328 322 304 303 296 314 302 304 312 305 279 347 318 293 289 304 332 332 321 312 300 313 299 312 313 316 315 347 338 314 307 288 311 307 318 299 287 334 329 338 313 335 309 312 326 322 289 307 309 289 300 320 307 298 313 294 321 300 308 307 337 347 316 313 300 299 303 311 302 308 291 295 292 298 320 307 297 332 317 314 298 304 287 316 323 329 302 327 327 326 337 297 298 339 298 310 329 334 323 332 305 292 328 309 322 285 327 285 317 322 309 307 299 293 331 327 322 296 331 313 316 335 340 302 313 297 364 320 312 314 303 317 309 333 305 276 309 307 303 318 302 335 314 316 348 308 296 341 314 318 322 299 319 318 280 327 314 291 297 307 364 327 337 319 294 332 290 287 311 333 349 353 301 308 279 312 339 310 314 299 330 337 316 330 329 286 314 302 304 293 317 348 316 327 324 324 319 315 279 317 311 318 317 318 297 325 329 313 315 367 316 332 305 308 341 308 311 341 368 307 308 311 300 333 298 319 320 321 321 315 307 318 285 313 310 304 335 325 332 317 330 337 316 332 318 303 303 315 311 340 349 316 326 298 314 313 318 350 321 342 312 345 305 326 333 330 304 314 313 344 333 338 306 311 354 329 341 341 302 324 310 323 299 337 325 300 305 317 328 343 292 317 317 311 328 302 300 343 337 330 276 333 317 352 315 318 358 326 361 328 335 337 353 318 302 325 312 344 321 343 333 364 301 343 360 333 340 328 313 317 316 309 322 326 334 298 363 330 303 363 336 340 315 360 357 345 303 339 327 326 340 314 354 345 306 329 283 310 319 322 351 371 351 351 316 337 333 312 358 313 316 342 300 342 349 360 310 320 342 339 331 307 323 357 316 334 316 327 337 347 316 359 348 337 332 333 277 291 317 365 358 340 333 321 343 350 292 313 332 357 341 347 318 325 331 332 352 342 320 333 371 330 346 340 326 360 338 344 336 332 319 341 353 330 380 337 344 361 354 327 333 343 320 332 334 337 339 341 359 332 342 351 312 343 338 341 324 306 324 360 310 338 361 320 337 393 356 363 348 327 342 347 331 333 336 342 299 344 349 338 327 334 349 331 350 346 330 337 317 347 352 311 340 316 343 366 354 352 381 320 340 342 359 348 372 365 330 327 352 347 335 331 355 326 348 342 316 349 314 326 311 330 320 333 333 329 311 348 346 324 347 323 310 369 340 324 332 366 387 383 377 353 393 328 356 364 327 367 350 322 353 350 357 368 339 339 365 347 320 331 373 330 322 335 328 351 315 339 341 376 361 336 340 361 342 314 364 328 385 356 337 364 334 334 377 378 341 320 345 342 342 373 346 352 356 359 351 348 344 322 362 346 344 353 336 332 317 355 349 337 366 341 377 326 393 357 334 363 366 338 360 384 362 348 310 351 344 300 351 379 332 354 348 352 363 340 344 356 356 374 327 346 387 313 344 371 351 364 347 345 388 351 341 376 346 345 348 364 347 347 380 381 393 342 352 366 385 333 342 386 343 368 367 359 345 326 317 358 386 340 330 369 346 384 343 363 375 344 348 346 330 325 364 314 341 335 338 365 362 338 329 368 346 366 374 346 337 357 346 343 350 343 338 333 286 353 327 355 344 346 400 398 361 364 351 362 375 353 376 346 366 341 357 370 338 339 353 363 390 373 381 341 381 325 370 351 323 391 351 375 354 359 390 336 366 363 355 364 378 314 342 336 386 354 379 374 352 332 355 345 357 373 385 340 354 352 378 362 364 355 393 335 379 371 361 347 377 352 347 371 358 357 329 367 345 321 357 374 350 362 409 362 357 338 372 386 364 379 362 390 336 345 382 351 402 333 344 363 329 342 393 358 360 342 350 376 348 334 360 331 339 350 347 340 353 356 339 348 364 371 327 364 360 333 382 349 364 362 367 363 366 347 375 331 348 356 313 328 349 364 349 357 363 353 382 325 375 362 389 364 332 320 354 352 348 348 346 375 363 366 350 368 394 345 334 365 327 355 361 314 378 325 354 333 366 369 349 368 372 373 359 346 360 337 367 370 357 367 349 357 384 315 336 320 382 351 365 356 344 344 404 370 362 391 375 352 352 347 383 340 332 349 333 385 352 378 355 379 361 344 347 347 346 367 325 352 360 360 353 360 330 351 368 364 385 358 342 349 335 327 365 325 364 361 367 350 401 312 369 365 348 399 396 337 373 401 347 390 384 345 338 357 375 320 355 336 333 343 378 351 371 366 393 316 349 349 362 364 355 377 359 385 354 367 333 367 325 350 354 370 328 352 342 336 381 351 340 385 314 361 330 333 358 374 338 359 340 349 353 353 314 338 323 324 311 366 344 354 364 349 347 368 365 386 351 359 374 400 370 354 385 359 320 345 339 384 372 339 348 372 316 385 337 350 351 325 377 370 343 358 340 323 309 359 367 357 314 336 353 349 344 370 324 325 363 367 362 369 331 320 351 335 342 368 358 367 358 362 365 385 351 364 362 297 353 317 373 352 318 334 370 376 337 340 359 378 363 334 336 350 361 335 335 359 381 363 352 350 336 334 342 364 336 337 367 341 323 345 340 365 376 370 332 338 349 347 336 378 338 366 342 339 338 360 334 334 340 317 327 325 340 363 360 321 319 313 341 338 316 340 319 353 343 332 332 332 344 314 356 323 352 365 328 354 355 368 361 365 334 360 341 347 318 345 331 304 348 316 339 355 339 367 350 376 363 368 315 322 342 320 342 357 330 385 318 297 313 317 375 361 313 320 373 332 282 347 357 333 333 315 318 336 363 369 350 352 342 338 374 348 344 339 373 363 329 332 336 314 346 381 339 341 338 335 325 351 340 353 359 345 313 321 346 308 330 349 338 347 347 356 365 332 355 351 381 340 363 339 322 340 394 315 343 348 326 364 362 315 347 346 332 355 356 327 336 335 342 367 325 359 353 330 359 330 325 325 332 321 314 340 326 337 331 337 343 354 357 299 344 350 317 328 328 317 335 335 333 331 327 368 341 346 323 325 318 325 333 363 320 336 351 352 355 327 312 346 297 305 332 327 335 336 355 330 325 366 340 358 297 318 316 314 306 354 340 361 323 304 343 350 331 336 367 331 328 330 370 338 318 330 362 325 360 322 340 328 307 322 324 314 302 338 320 354 371 335 340 327 327 346 332 332 370 316 333 342 325 313 342 326 343 372 344 346 342 319 363 338 339 319 322 334 312 316 319 395 327 333 345 363 357 315 354 338 366 358 341 329 327 303 349 338 324 286 353 307 334 340 316 341 326 343 329 328 318 338 359 340 313 336 332 330 318 299 296 307 321 318 313 356 344 329 318 322 331 314 311 328 317 311 352 346 346 306 318 308 322 353 335 315 343 328 286 327 314 315 314 302 332 334 328 327 335 311 304 344 317 319 318 337 320 356 348 343 338 330 299 318 326 322 326 317 332 342 304 328 318 315 320 325 280 331 337 350 333 352 330 329 323 316 308 327 335 313 322 314 313 326 328 335 341 318 340 324 328 318 316 336 285 333 306 332 315 307 325 320 357 321 327 343 321 330 319 311 302 306 293 320 360 315 322 298 315 312 294 313 313 334 337 333 334 329 318 314 331 311 276 313 343 307 346 313 302 338 352 297 306 327 328 322 344 328 336 309 321 331 361 317 305 343 306 299 325 316 367 342 319 312 332 350 327 342 332 350 343 307 328 332 353 281 340 291 330 307 340 336 303 296 312 327 327 356 305 333 283 307 329 340 279 332 349 312 341 294 315 316 366 310 344 316 324 284 323 320 286 294 333 322 315 322 318 319 321 342 313 310 288 321 275 297 317 320 309 309 329 314 337 339 335 326 298 310 324 340 352 261 290 317 308 328 292 311 320 316 294 316 313 337 281 326 323 323 308 303 355 312 322 290 309 311 323 337 295 326 299 304 352 340 295 303 314 331 274 284 310 321 310 294 345 300 292 335 319 300 339 298 318 306 329 301 362 310 319 337 315 320 320 337 305 307 319 321 334 310 295 313 301 301 320 330 338 286 323 335 338 320 306 330 317 302 313 299 306 310 342 351 314 344 331 316 312 310 340 256 282 292 318 303 295 301 324 324 322 285 321 308 317 330 292 322 307 287 339 316 307 284 281 301 296 309 339 336 323 318 359 311 343 280 323 323 299 282 344 323 303 280 303 319 294 281 299 326 320 307 292 300 296 320 291 323 303 347 286 308 286 333 315 319 325 318 317 334 310 327 327 275 294 300 294 297 300 311 291 369 294 327 314 295 339 293 324 305 304 291 325 317 283 303 314 309 331 332 307 311 312 276 333 346 308 291 321 303 311 310 329 282 338 323 321 287 298 312 296 302 302 321 287 314 310 306 319 303 301 311 289 296 308 301 325 293 309 316 305 346 291 317 287 309 329 273 330 347 323 318 302 337 273 303 312 303 291 332 315 307 286 300 307 260 305 313 304 323 320 327 323 291 313 333 296 281 313 312 314 332 317 315 314 302 327 305 316 327 330 346 291 308 282 326 295 313 302 312 291 314 331 298 300 334 294 357 326 330 302 293 298 307 305 291 283 296 316 298 321 321 313 280 316 327 289 311 313 281 301 298 280 297 327 293 285 319 298 286 312 309 319 318 288 343 309 321 301 301 311 336 324 320 285 327 300 286 300 303 282 328 311 340 315 313 283 319 304 339 315 297 323 323 302 328 297 305 319 324 306 319 303 311 319 262 316 295 317 323 293 331 310 328 285 310 317 318 324 302 313 314 316 311 295 309 324 319 283 293 330 283 321 313 326 298 298 315 296 291 295 311 334 331 311 319 308 298 299 347 296 264 311 320 292 323 262 298 288 322 303 310 286 307 330 293 272 318 320 297 302 294 294 303 275 304 326 301 292 315 303 301 286 289 286 296 337 316 294 328 286 333 280 318 284 307 309 314 328 286 307 321 305 313 320 303 327 281 311 293 262 337 320 300 345 298 307 324 337 279 302 324 304 334 317 295 295 307 329 304 325 291 288 308 311 324 318 314 288 306 333 298 326 299 292 318 323 302 307 303 324 313 323 332 319 272 302 278 323 293 337 310 335 299 290 299 292 349 328 281 316 311 312 301 302 248 285 334 319 306 275 296 307 331 304 347 345 328 306 316 299 308 296 320 336 291 304 294 308 297 304 307 283 295 315 311 319 304 324 307 342 321 295 332 294 300 314 323 312 295 318 336 297 293 301 293 286 316 289 279 282 309 316 297 337 315 343 293 287 298 341 315 315 313 323 316 279 283 311 296 304 331 314 319 319 322 328 307 330 325 287 306 331 269 301 314 328 310 305 316 342 341 308 283 310 291 334 297 261 317 307 295 291 327 311 281 297 297 324 333 280 296 311 301 295 291 297 293 306 280 304 290 298 306 275 277 335 305 309 300 308 317 294 299 309 311 289 276 336 304 323 299 288 287 304 318 333 291 320 333 303 316 308 279 297 307 287 300 278 322 310 284 296 297 294 302 326 310 296 309 299 300 301 298 299 310 295 326 319 302 324 289 306 279 306 326 289 303 323 308 342 266 264 329 326 323 270 326 296 296 312 294 318 302 304 319 296 301 295 316 302 282 297 259 305 329 278 292 284 295 286 258 329 304 300 287 292 297 328 287 326 314 282 322 321 306 313 285 321 330 291 290 288 329 294 322 313 258 268 334 314 288 318 302 313 296 250 265 265 266 280 290 265 304 300 316 310 254 250 317 313 289 298 275 301 293 320 294 299 312 282 301 289 279 280 320 304 303 312 276 294 288 310 299 340 305 262 296 300 298 282 290 297 305 268 321 308 270 274 307 290 288 312 321 306 308 313 288 291 315 295 296 279 285 284 286 300 295 307 318 300 291 280 268 339 269 287 291 267 304 287 288 283 271 324 298 318 305 306 262 272 300 296 336 296 262 293 314 284 286 300 291 274 269 304 264 269 293 294 302 287 316 313 305 295 281 333 309 272 321 308 315 276 309 289 301 303 292 313 277 271 316 320 272 299 304 249 307 281 303 286 302 287 300 280 297 290 328 290 284 305 273 285 303 274 310 305 297 277 272 246 288 307 265 307 321 275 292 310 272 281 312 300 312 295 293 324 278 282 292 279 298 283 291 302 313 280 288 317 271 310 292 316 296 306 297 293 286 289 309 306 303 270 314 333 235 274 326 289 284 277 290 285 288 259 281 287 302 306 287 296 285 279 283 286 304 307 275 307 298 298 280 267 305 309 299 318 316 289 295 284 290 274 300 290 268 296 309 272 289 289 279 285 271 289 281 291 304 305 288 302 287 320 291 282 266 309 276 325 283 297 301 269 291 279 317 278 270 280 283 279 297 325 307 303 322 281 287 285 298 266 269 275 249 291 280 323 278 269 289 301 305 320 317 306 304 298 282 305 312 268 284 281 290 284 293 285 286 282 306 292 288 264 263 298 298 279 304 295 272 299 274 292 335 280 305 327 280 298 318 303 269 302 285 281 285 293 270 315 288 303 299 316 296 279 291 327 284 293 306 282 288 293 319 292 307 268 293 267 296 288 278 289 285 297 316 272 308 282 273 260 298 334 268 264 306 297 272 286 293 280 288 317 270 292 260 282 296 273 272 265 298 279 263 316 271 279 317 314 278 275 281 299 292 312 307 287 294 299 279 303 300 277 297 284 280 335 283 327 280 333 298 317 305 324 288 298 305 294 280 282 298 276 281 260 280 309 305 262 293 292 286 271 276 277 268 287 289 299 303 311 285 297 285 276 268 275 312 280 304 294 289 269 275 292 279 306 277 300 278 250 299 294 266 275 317 314 304 315 324 282 302 268 277 272 306 309 284 306 301 289 287 282 302 260 279 292 283 279 269 266 274 287 276 291 320 311 284 288 301 314 291 312 273 281 274 297 321 293 318 314 293 311 308 308 296 293 290 290 290 293 290 275 265 277 285 315 310 310 271 290 290 306 303 271 301 316 290 326 288 306 308 298 275 320 274 301 292 295 304 287 274 281 285 287 271 310 294 303 274 316 289 304 319 272 313 299 259 284 292 309 312 294 313 301 306 268 289 283 293 300 295 308 317 301 309 322 294 268 280 295 290 291 321 353 283 274 286 305 307 282 281 290 301 294 276 311 279 289 340 313 287 267 286 305 312 313 318 283 320 286 328 295 314 287 282 299 317 286 278 307 300 314 303 299 314 297 329 314 285 299 302 295 295 314 306 266 332 295 297 267 283 316 325 311 298 285 292 282 293 316 288 281 318 293 269 277 292 246 332 284 293 275 305 284 298 299 304 303 298 274 321 310 309 319 283 279 284 300 301 318 288 302 329 267 309 293 316 317 305 296 306 293 290 292 288 300 273 288 278 286 312 261 327 300 287 276 281 312 268 327 289 291 284 324 295 294 277 310 298 302 297 281 266 280 269 260 287 304 260 274 288 262 300 297 296 293 308 299 280 278 274 271 271 317 283 275 280 295 302 275 279 263 288 283 296 257 249 273 257 278 271 267 285 256 251 274 257 280 313 287 295 269 287 257 258 275 259 295 285 246 228 244 283 259 266 246 274 245 220 275 308 268 265 280 267 276 248 271 264 278 259 275 236 257 248 268 278 277 228 268 234 265 261 257 264 274 270 227 288 271 259 258 244 269 289 236 274 268 283 247 259 261 239 247 249 256 228 228 225 249 287 269 241 275 278 250 236 269 264 242 267 275 227 239 272 276 246 273 247 249 219 249 233 235 261 249 243 249 257 248 277 280 293 235 257 256 275 258 237 234 294 274 237 281 246 233 231 263 250 241 236 265 249 256 275 279 276 256 249 264 259 267 259 266 238 233 223 268 274 273 260 261 248 283 258 288 274 272 235 265 236 258 237 234 285 249 257 237 280 243 240 281 243 282 271 274 246 235 291 276 239 267 262 276 246 270 243 273 272 259 266 265 259 276 227 280 263 269 261 234 277 258 278 279 290 291 248 267 230 290 262 281 260 266 269 263 237 276 246 265 267 264 276 276 266 236 268 273 264 246 237 275 249 259 282 248 259 284 250 256 243 261 274 231 232 250 239 274 276 272 245 247 237 241 256 259 282 248 277 236 233 294 246 219 237 264 261 236 249 272 265 247 244 256 237 273 270 269 223 273 243 284 265 230 283 223 270 239 237 268 260 230 258 229 243 222 271 223 237 248 217 239 232 259 274 261 235 251 208 249 225 250 214 258 227 218 243 240 267 244 210 281 235 238 241 212 275 248 278 251 266 209 260 226 258 209 261 267 268 259 249 267 235 221 234 259 229 269 233 241 228 232 229 258 240 237 249 232 238 249 225 233 250 267 257 238 236 240 264 239 244 238 217 251 219 223 248 240 261 228 244 249 208 227 265 239 227 257 211 250 223 227 241 258 262 245 230 202 244 257 246 209 227 237 194 264 206 222 229 248 227 245 240 211 231 206 222 221 234 224 205 248 208 235 234 223 240 198 219 222 218 216 218 217 214 234 233 207 207 222 214 233 215 207 224 231 223 226 250 225 207 213 217 227 208 215 242 222 218 221 223 215 220 208 233 237 208 217 187 212 202 219 224 224 194 228 209 236 212 231 211 241 210 222 259 226 209 251 225 268 216 226 211 237 222 227 228 219 204 218 207 206 233 211 212 224 232 229 222 213 220 239 230 225 206 207 256 224 239 218 212 211 222 215 205 215 234 234 211 232 249 221 228 197 202 224 228 220 216 222 224 200 226 239 220 193 205 218 230 234 197 227 214 204 224 221 236 206 215 221 233 221 223 184 249 204 222 204 236 234 215 205 191 238 200 197 246 224 221 204 208 233 214 231 204 233 216 222 237 230 216 214 219 216 207 216 200 204 214 197 202 212 214 206 221 223 223 211 189 203 211 224 211 221 207 229 213 202 213 227 233 208 209 214 222 217 219 205 208 220 212 224 203 239 196 216 208 212 219 243 217 210 192 223 231 211 212 223 213 215 182 196 212 234 225 223 226 197 210 207 229 222 204 212 245 204 180 245 236 220 200 251 197 199 212 227 237 202 198 188 190 206 215 227 173 213 222 216 213 213 244 238 205 200 214 251 202 210 218 225 211 208 246 228 221 237 211 218 210 221 203 216 199 216 191 191 209 204 205 224 218 233 218 240 206 195 208 224 210 199 203 227 235 216 207 241 231 218 213 222 194 213 226 240 213 232 191 238 220 219 207 238 202 193 216 208 224 222 211 205 203 227 240 231 236 232 245 212 225 224 219 257 197 217 210 210 224 221 195 200 212 218 194 226 208 239 208 234 234 217 231 196 234 224 212 233 186 184 223 202 213 217 193 243 249 233 230 206 198 213 223 208 245 212 218 215 220 259 219 234 239 206 242 229 211 212 240 184 215 216 215 224 206 225 225 240 212 213 203 200 238 194 223 260 232 207 226 219 207 210 202 216 228 226 219 223 223 217 239 207 219 241 206 226 229 211 216 212 238 244 227 263 211 208 198 215 210 220 216 226 233 221 225 240 218 213 213 232 227 222 230 203 247 230 229 219 241 240 232 239 234 212 214 236 233 223 244 228 207 204 224 220 249 225 232 269 238 231 219 234 238 218 226 236 242 286 265 251 245 271 238 237 226 262 245 249 245 241 269 262 258 248 214 289 270 270 282 274 291 248 269 281 282 280 260 290 291 284 280 294 287 286 321 271 262 284 314 279 284 293 249 267 299 289 294 293 278 318 307 241 273 293 288 270 289 265 293 284 259 292 269 284 237 243 265 240 306 279 239 238 261 257 273 236 264 269 247 237 272 277 231 273 242 272 276 256 278 232 226 244 244 274 232 228 277 259 241 257 261 258 240 261 269 269 272 250 221 245 266 278 246 246 262 266 256 272 268 264 277 276 258 259 257 248 248 248 257 249 277 256 261 268 281 258 237 268 245 293 282 270 261 264 260 267 272 270 282 276 272 245 279 271 285 258 258 303 285 270 256 290 266 306 298 284 232 280 288 279 286 269 267 279 289 290 291 283 275 269 283 264 289 280 310 290 303 266 300 300 289 275 256 294 339 308 273 295 298 285 283 299 270 287 289 293 284 297 271 282 278 291 276 303 285 271 285 307 249 285 276 290 288 291 298 290 281 283 311 307 271 291 272 302 285 289 264 282 283 317 269 278 301 276 291 285 263 294 263 323 266 301 286 286 305 285 281 295 321 263 281 285 280 275 309 285 314 275 283 275 243 312 315 311 311 281 280 291 268 278 256 272 279 291 284 268 293 290 295 262 287 246 260 264 281 260 247 304 244 247 261 243 270 273 263 258 283 265 280 283 278 272 298 258 248 275 257 262 259 249 251 250 263 263 283 286 267 272 259 243 268 265 261 283 274 273 235 264 266 248 240 238 269 223 241 269 270 246 235 244 239 233 245 237 225 217 269 241 245 221 263 229 248 222 243 281 264 257 213 243 219 224 271 203 239 266 209 221 240 215 256 181 244 240 243 239 225 228 217 234 201 243 257 211 228 263 224 229 207 210 232 236 182 227 214 205 207 216 208 220 256 200 229 246 231 203 198 204 230 236 206 222 202 199 214 228 244 210 185 224 231 209 227 206 227 211 215 197 246 199 226 221 207 224 225 226 210 206 171 207 237 218 200 215 211 231 230 197 230 221 196 182 210 192 187 223 225 192 197 220 185 198 206 211 201 245 217 210 199 199 203 215 211 194 207 208 202 188 196 179 236 204 189 205 183 226 209 251 218 192 232 207 209 213 190 183 215 215 202 179 221 196 171 183 186 213 196 183 199 191 207 206 204 217 184 197 196 198 176 179 215 211 202 203 188 191 191 185 229 187 196 186 185 200 211 195 179 181 189 188 226 214 187 190 201 189 190 201 221 171 188 182 179 202 185 213 185 187 179 202 182 156 195 197 180 187 188 213 207 198 195 160 184 214 202 233 199 194 204 186 163 202 165 165 188 182 206 213 201 177 168 175 206 182 208 199 202 197 196 181 195 193 189 202 162 165 169 144 170 197 181 215 181 182 187 176 161 198 167 192 200 173 180 161 173 169 182 190 184 169 170 198 216 175 184 185 190 183 204 165 184 161 173 199 176 190 173 185 193 203 209 164 191 161 164 183 200 173 199 172 173 186 180 168 137 179 163 196 181 187 194 195 175 175 176 176 175 180 166 182 180 162 184 178 186 201 168 183 174 186 170 196 174 180 203 184 178 180 151 171 190 172 174 169 186 161 196 184 180 182 207 185 205 161 183 182 208 198 171 191 208 192 199 190 172 165 149 163 178 175 174 182 175 189 186 155 176 190 190 183 188 171 198 160 180 195 185 184 187 185 196 188 177 169 188 179 167 170 216 200 170 173 146 169 168 163 186 177 156 198 189 187 160 191 180 172 166 184 177 188 131 163 190 202 167 196 185 180 183 169 175 183 169 181 160 155 180 177 177 164 164 172 178 162 168 180 176 192 145 152 181 180 152 170 168 191 155 200 184 164 176 192 169 183 173 169 193 166 191 153 158 207 172 174 173 161 181 160 163 177 163 149 160 182 185 155 145 149 186 189 168 179 175 180 174 163 179 169 168 182 149 188 165 197 166 171 161 189 159 153 173 170 203 153 188 160 159 182 194 203 178 161 176 162 184 155 167 168 163 186 169 195 155 178 177 189 175 170 180 170 148 187 202 191 143 178 181 157 177 163 202 168 209 178 187 201 174 152 153 153 177 186 185 193 182 176 168 185 188 179 169 165 169 198 174 130 139 188 145 184 154 179 181 159 185 160 184 170 195 165 177 172 180 184 172 188 162 173 188 173 154 171 177 175 170 168 155 159 178 180 144 181 167 181 153 176 188 182 188 185 158 155 175 166 171 173 169 175 176 178 178 190 179 161 136 171 173 180 185 162 161 167 191 158 174 182 177 159 171 166 161 172 154 177 185 165 158 163 183 173 163 154 177 175 189 174 171 172 198 176 171 177 167 185 154 165 169 159 178 170 172 170 173 161 173 152 156 173 174 179 171 175 174 177 171 182 169 190 176 147 200 166 165 174 156 186 159 158 176 196 178 142 160 176 145 186 159 174 161 156 165 160 159 158 184 170 177 175 183 187 185 168 185 157 159 179 168 172 152 159 163 169 192 181 188 207 153 179 160 169 153 158 174 167 172 164 154 176 176 164 172 168 169 161 153 165 152 174 196 181 171 171 161 183 166 166 160 158 150 163 174 152 159 185 155 147 184 161 163 182 170 160 160 187 164 190 132 154 145 150 181 172 162 167 158 156 159 177 155 160 170 174 163 181 173 154 155 149 186 154 149 176 194 166 187 140 156 166 145 179 150 169 146 154 195 171 160 169 166 162 192 171 152 206 172 176 173 176 174 175 187 161 169 167 172 177 176 165 174 159 176 184 181 173 187 158 174 166 179 168 162 166 178 152 180 145 160 167 189 194 166 153 170 197 169 171 176 186 163 177 159 161 139 159 148 188 168 173 156 176 169 169 166 175 176 150 180 170 181 174 158 189 161 151 181 184 184 157 200 182 164 148 200 163 144 157 192 157 173 163 171 194 154 161 182 172 153 144 152 158 164 156 145 163 165 192 156 180 183 142 167 171 167 144 170 179 172 171 154 144 173 160 166 137 187 166 183 172 183 172 181 155 152 192 162 168 157 173 178 190 195 169 172 165 185 173 166 197 151 193 159 173 191 131 143 188 173 179 162 169 159 191 176 187 168 151 174 182 179 155 191 157 184 179 162 160 178 172 147 177 154 157 157 166 171 150 190 172 199 168 146 164 191 166 172 179 169 161 148 171 187 140 162 161 157 161 180 193 165 183 178 174 155 164 186 178 166 160 170 160 198 191 159 176 183 175 163 164 182 135 180 162 174 193 157 143 164 176 139 147 170 148 155 186 179 157 150 155 168 175 133 147 185 173 197 171 179 163 162 150 157 168 166 170 187 152 167 154 189 179 162 150 177 155 167 178 162 159 175 163 156 154 170 170 143 152 183 184 153 185 167 161 163 157 175 163 176 152 163 161 161 159 159 177 170 154 172 165 188 190 194 155 155 180 186 147 162 152 189 182 171 166 176 170 177 170 175 186 171 191 190 171 152 169 169 177 184 146 167 181 146 162 147 193 155 192 178 170 166 144 156 176 176 174 150 188 153 158 171 164 172 179 162 178 160 159 190 186 180 159 178 162 176 162 165 172 178 177 183 155 183 176 183 172 168 182 177 168 189 162 165 190 178 177 200 163 163 181 173 190 177 175 189 159 169 179 179 185 172 156 167 154 176 165 160 169 172 158 161 170 191 169 181 176 157 166 178 187 184 192 171 167 170 178 190 170 172 169 170 160 156 156 184 169 163 152 146 183 155 184 175 158 156 165 165 187 147 176 168 184 170 152 174 170 165 156 191 169 188 167 159 173 173 181 156 204 174 174 174 170 171 185 172 182 161 171 173 156 169 171 151 168 181 174 175 166 192 171 178 177 170 182 171 164 174 178 217 162 191 173 171 176 178 187 175 170 170 177 167 147 181 167 163 156 177 190 176 194 189 182 180 150 205 185 148 177 149 169 167 172 176 160 146 175 179 163 153 168 166 163 182 188 182 158 192 164 166 146 162 178 172 178 178 172 136 192 188 170 156 167 190 178 172 169 157 160 174 166 178 176 155 182 168 185 206 177 187 184 172 173 166 168 144 168 176 177 148 180 181 143 199 159 167 185 161 163 158 172 176 181 164 200 187 166 159 155 167 171 167 169 173 177 168 163 176 177 149 168 176 191 169 179 180 189 161 178 198 181 160 161 179 166 162 191 176 180 171 181 171 194 184 156 166 172 162 164 176 162 192 188 195 185 180 183 177 195 175 174 187 184 200 169 183 177 182 171 182 163 197 193 172 172 163 174 162 188 188 193 162 209 174 176 174 201 179 184 195 177 174 173 177 160 172 162 201 184 152 190 207 179 173 175 184 183 176 158 220 208 175 171 188 182 184 191 153 147 184 169 199 179 174 178 170 168 156 177 153 183 186 184 172 165 177 173 180 163 191 195 204 169 193 183 150 191 182 176 187 207 180 209 161 201 199 191 168 174 173 165 188 159 186 175 192 186 187 190 168 198 185 213 170 161 184 185 181 191 158 169 146 199 181 173 169 183 190 194 193 191 176 180 192 174 210 220 186 174 189 196 190 172 185 191 179 177 184 194 199 203 162 183 209 167 191 181 176 190 188 167 158 161 175 195 171 191 172 173 140 167 173 164 159 176 179 187 171 179 179 181 165 186 180 180 184 197 198 179 178 181 186 193 190 170 185 199 193 188 161 177 205 216 163 184 205 176 214 168 197 174 175 180 176 184 185 189 194 196 188 169 198 162 175 167 183 191 187 190 174 193 180 191 199 178 189 214 183 189 176 180 186 187 176 181 211 182 165 183 187 175 167 181 168 172 200 197 195 201 184 175 166 199 189 188 175 175 170 201 163 195 205 191 176 166 169 202 192 173 157 196 194 168 186 185 190 211 191 202 180 179 177 162 163 167 199 189 184 192 197 189 180 183 175 163 184 185 206 213 162 186 181 167 181 189 216 181 192 177 153 191 165 185 163 183 187 186 180 188 195 198 176 193 166 182 176 205 183 192 176 191 182 188 196 182 181 165 191 209 188 201 189 221 200 211 190 177 175 189 192 179 196 215 207 173 211 182 176 185 187 192 169 208 195 187 199 186 192 189 209 176 169 177 206 176 181 197 185 201 217 175 191 182 194 184 189 186 194 172 165 205 181 209 198 188 194 187 189 175 178 191 200 183 204 178 170 160 188 199 179 216 192 185 199 188 207 184 189 177 200 193 171 206 183 177 188 200 190 209 191 185 192 198 168 191 206 213 178 208 196 156 177 205 179 170 200 198 189 205 216 179 172 189 197 196 201 183 193 194 194 214 187 177 183 209 193 199 190 214 184 187 190 206 176 198 173 186 170 195 190 173 224 169 173 185 176 205 197 188 187 192 195 192 183 183 179 192 212 203 175 183 201 210 208 215 204 169 217 192 186 215 176 210 201 211 198 182 223 206 180 205 175 198 215 204 197 171 210 194 168 175 191 192 201 204 207 215 175 189 189 176 190 224 201 176 197 188 189 184 172 225 191 185 212 199 194 200 206 183 235 200 197 195 225 194 183 197 204 210 207 210 188 207 222 196 206 199 207 200 209 221 200 204 218 201 194 223 182 199 220 185 216 184 194 167 200 184 213 205 194 205 186 196 214 189 200 185 198 203 184 201 212 212 185 204 185 183 199 174 224 222 171 202 181 210 216 183 188 196 230 207 206 208 194 226 195 199 230 195 204 191 208 203 208 204 197 195 202 173 190 207 200 235 201 186 170 221 216 202 214 186 208 201 221 193 197 195 198 173 203 219 194 216 198 198 185 197 187 199 205 189 209 207 188 197 193 210 195 194 189 206 212 198 194 203 220 213 218 209 187 187 207 202 188 209 211 202 209 214 215 195 182 197 224 198 212 202 219 218 190 210 204 192 188 191 207 198 179 218 212 212 201 213 189 222 164 197 178 211 211 187 194 212 186 187 229 209 215 204 198 179 205 223 219 208 224 213 186 209 212 213 184 195 206 196 195 222 222 186 188 181 203 181 190 187 196 200 187 200 206 219 212 209 214 193 207 220 219 178 189 218 198 193 213 201 207 198 189 190 185 173 186 186 204 225 204 203 204 191 205 206 213 190 197 198 208 208 218 196 199 187 201 185 197 196 207 207 167 203 211 204 198 213 197 182 194 211 202 187 219 195 219 191 178 189 219 208 206 196 197 199 174 218 172 196 198 219 183 184 195 193 193 201 201 210 215 190 203 190 190 199 185 200 183 203 182 225 194 184 168 199 194 188 229 196 192 211 206 178 200 180 191 198 203 203 189 215 202 232 186 200 199 211 189 181 185 185 203 208 187 197 210 201 200 199 185 178 209 194 198 200 208 196 192 196 222 220 187 196 207 198 202 216 191 170 199 218 223 184 185 190 200 189 166 202 195 191 206 187 230 184 221 213 179 207 201 198 183 168 216 222 194 213 192 182 199 210 215 211 180 168 188 224 220 209 184 211 208 209 196 190 176 200 199 212 189 207 169 173 166 184 196 205 206 195 203 180 188 216 217 203 191 192 191 203 188 170 208 206 206 227 205 202 196 195 198 197 210 184 200 199 180 174 224 206 220 224 197 190 209 203 193 197 184 204 185 192 190 199 211 201 212 204 192 205 195 167 217 189 219 215 205 222 196 213 186 207 197 216 225 187 214 209 192 199 204 179 185 183 184 190 188 204 220 204 188 187 202 200 203 201 197 203 199 183 207 215 179 204 219 180 198 193 193 196 219 201 196 201 199 227 198 199 190 191 161 194 184 219 210 196 205 193 207 197 196 176 186 203 224 224 194 200 218 211 197 202 205 201 222 209 224 215 193 187 220 202 192 199 187 200 197 221 206 200 189 222 196 202 197 233 210 207 188 212 188 213 207 217 196 197 210 212 198 226 222 210 189 165 215 216 219 183 191 186 207 207 211 199 198 193 224 199 233 207 206 183 195 175 198 185 221 178 205 209 192 219 203 218 194 198 190 216 193 199 211 219 196 201 162 214 196 222 203 188 202 221 236 207 238 200 187 206 210 213 222 219 247 213 200 213 233 220 230 223 221 214 187 213 221 204 225 204 229 227 227 207 221 196 208 219 217 206 246 213 204 226 222 229 199 204 225 227 214 207 191 227 238 249 219 222 213 214 221 213 201 231 212 224 196 191 197 213 265 211 204 198 205 223 238 231 202 235 217 236 240 217 222 204 211 244 228 220 198 218 230 215 217 240 238 231 229 208 249 238 228 227 222 220 210 230 235 237 231 235 218 223 214 203 204 219 231 234 229 206 240 225 232 230 236 239 214 201 216 232 226 239 251 223 220 233 217 240 227 235 251 236 222 220 236 222 241 225 219 215 256 215 208 256 217 218 228 248 234 263 248 209 225 198 235 240 204 211 231 215 211 249 247 231 258 216 244 236 230 243 259 247 225 213 238 234 234 225 270 234 247 257 267 225 259 228 273 264 259 237 257 258 262 268 228 291 269 251 265 249 260 268 250 247 242 244 245 246 269 248 250 260 244 217 231 269 241 261 273 282 274 262 270 322 261 244 230 305 248 279 271 232 283 274 289 271 246 263 275 284 303 279 281 272 300 276 288 247 293 282 299 275 270 288 305 294 312 286 306 281 305 289 264 302 325 276 288 309 291 278 286 271 289 284 280 278 307 277 302 304 277 313 260 300 284 299 292 280 322 292 313 295 300 319 310 300 298 300 304 290 307 305 300 294 282 328 313 313 313 308 306 290 307 314 284 301 284 313 282 308 312 292 335 314 303 286 310 303 336 306 306 304 358 317 307 333 309 325 296 282 297 335 298 308 302 315 289 310 343 296 318 341 303 325 328 309 325 304 326 292 308 283 310 308 280 281 307 305 292 272 287 304 337 314 306 297 327 286 322 266 298 311 298 300 299 322 284 278 279 298 280 284 296 321 302 267 303 271 293 271 273 282 270 277 293 281 276 309 284 260 290 271 277 291 291 258 273 268 311 278 246 271 243 300 275 277 272 285 301 276 296 285 266 267 269 246 245 276 267 243 263 280 249 263 270 212 286 291 272 232 241 269 233 275 284 222 238 287 229 249 265 271 256 285 268 222 240 243 222 258 233 243 244 242 243 228 215 235 229 249 238 235 224 246 234 248 268 216 213 262 223 233 225 214 234 275 230 230 234 237 237 259 208 249 236 217 233 209 234 219 217 200 205 235 240 227 199 231 219 196 214 245 190 233 214 202 238 225 222 199 215 239 189 231 213 197 206 228 217 218 214 220 174 197 217 213 226 200 201 198 210 217 189 210 218 226 205 201 220 214 236 185 202 199 220 196 208 214 219 185 217 207 199 206 207 194 234 178 207 197 175 215 179 219 185 222 202 218 185 207 192 204 200 181 211 185 192 170 205 205 180 182 181 174 201 198 204 180 215 170 201 214 175 205 187 192 155 198 202 186 176 174 196 197 205 178 189 178 169 171 178 193 149 224 204 207 213 180 168 203 179 169 172 178 167 202 169 167 188 193 191 177 189 189 190 181 196 202 190 204 189 179 173 165 204 203 155 167 171 190 170 196 187 163 181 181 180 196 145 175 170 174 175 201 170 162 191 196 157 181 160 206 193 172 160 183 195 188 187 187 180 191 179 175 176 185 165 174 189 186 164 179 190 183 186 174 180 163 197 179 173 177 160 161 161 162 165 171 168 166 200 171 159 164 170 197 191 180 169 178 180 191 187 190 168 174 177 189 191 165 181 174 174 182 176 180 179 183 151 151 158 180 177 159 181 176 164 170 185 187 153 164 175 167 167 162 165 177 176 175 161 168 157 156 147 173 166 169 161 172 180 151 179 180 158 180 171 198 166 173 170 172 151 170 149 175 159 191 162 195 170 171 171 155 157 189 177 159 174 155 163 182 173 158 193 187 191 179 170 143 162 172 178 185 171 154 168 133 175 175 142 187 151 180 182 169 164 164 170 146 146 203 156 173 181 184 160 178 174 178 156 154 149 155 178 173 165 147 175 151 169 189 156 164 173 158 165 160 144 175 142 164 162 152 154 161 163 154 149 167 181 181 203 162 154 171 192 153 175 146 176 150 152 188 149 184 185 153 175 183 141 157 159 143 150 175 163 149 200 157 160 174 173 149 151 163 162 150 145 163 154 159 174 149 170 145 166 185 169 162 190 163 174 142 171 174 172 169 180 160 174 177 187 167 168 159 167 178 170 155 203 154 169 179 172 153 167 170 192 154 148 153 174 172 177 158 169 148 161 176 163 144 149 147 173 152 154 154 192 162 167 181 155 156 161 171 144 150 175 155 156 162 174 153 155 146 160 172 173 162 161 155 150 143 151 191 152 143 196 167 155 150 172 178 136 169 131 153 170 135 163 160 164 157 151 149 175 168 151 184 163 157 169 161 160 141 147 135 177 173 141 167 143 153 180 162 140 158 175 147 142 162 155 153 150 159 177 123 163 154 150 118 160 149 154 169 177 147 157 178 122 180 155 141 151 154 149 161 132 180 154 160 147 164 163 154 140 145 142 168 169 151 135 157 159 127 150 163 162 154 163 151 163 145 157 187 153 160 131 158 138 162 168 148 152 164 155 161 161 158 165 157 170 160 178 147 154 149 148 157 149 187 133 140 146 141 150 156 156 168 164 148 170 169 164 167 148 149 175 156 174 158 149 154 171 145 143 167 135 160 162 150 154 150 150 151 161 147 155 157 144 132 140 153 163 164 124 148 143 148 162 146 153 151 155 160 159 142 147 149 157 142 161 161 142 163 155 172 170 158 145 153 149 161 159 138 182 170 158 140 173 135 160 160 172 156 154 139 142 152 169 169 171 166 153 151 152 134 143 136 142 155 170 145 190 170 154 148 184 140 154 147 173 142 151 160 154 153 137 159 156 159 187 160 154 151 151 161 154 161 156 163 156 152 155 150 130 158 129 152 149 169 129 143 152 146 145 157 155 153 164 173 157 128 141 159 149 141 157 145 145 165 128 118 152 160 135 157 153 155 146 166 144 149 122 155 160 148 167 136 155 146 142 155 148 167 154 154 149 150 113 153 182 153 137 145 142 137 127 148 162 144 142 157 138 134 136 128 128 173 139 129 140 157 158 151 152 160 138 144 128 139 142 128 146 171 126 134 166 154 167 156 140 135 146 149 153 148 127 150 162 160 132 149 135 152 133 168 157 159 145 143 126 143 150 144 143 126 142 143 131 148 131 148 161 148 136 132 144 134 141 142 137 142 152 154 152 140 153 145 145 144 127 148 122 144 143 145 152 149 147 146 155 121 139 144 138 134 152 141 142 139 133 149 164 150 161 152 143 143 140 140 122 143 156 147 146 174 161 141 133 168 142 130 153 160 127 134 136 122 152 153 168 160 149 172 139 145 154 148 147 160 140 144 130 146 153 144 153 146 153 138 161 150 134 139 142 140 138 140 164 149 147 170 165 165 173 136 171 162 151 153 144 128 137 146 149 154 134 137 137 151 135 172 150 153 156 143 135 143 138 146 150 135 150 121 150 162 153 136 140 140 141 140 173 147 150 135 149 176 137 140 122 135 128 140 161 157 145 125 139 134 149 131 141 145 147 139 121 145 132 133 158 143 128 130 159 153 137 139 137 127 146 146 164 135 153 123 136 161 157 124 138 140 136 143 118 134 156 162 149 152 156 138 144 131 144 121 122 150 146 139 152 139 131 167 157 115 143 134 138 122 160 103 155 146 147 176 151 153 142 148 131 159 147 123 133 148 148 137 145 131 136 140 142 148 152 133 139 159 122 134 161 127 139 127 153 150 120 147 134 162 146 128 163 140 171 134 136 139 142 143 104 137 137 152 133 171 131 136 136 161 153 146 133 166 142 130 151 143 176 141 148 152 145 138 118 127 143 140 122 150 146 148 139 126 146 141 134 144 125 140 159</intensities>
			</dataPoints>
		</scan>
	</xrdMeasurement>
</xrdMeasurements>
