<?xml version="1.0" encoding="UTF-8"?>
<xrdMeasurements xmlns="http://www.xrdml.com/XRDMeasurement/1.7" xmlns:xsi="http://www.w3.org/2001/XMLSchema-instance" xsi:schemaLocation="http://www.xrdml.com/XRDMeasurement/1.7 http://www.xrdml.com/XRDMeasurement/1.7/XRDMeasurement.xsd" status="Completed">
	<comment>
		<entry>Configuration=Conf. Reflection-transmission spinner, Owner=User-1, Creation date=2/28/2018 8:43:02 AM</entry>
		<entry>Goniometer=Theta/Theta; Minimum step size 2Theta:0.0001; Minimum step size Omega:0.0001</entry>
		<entry>Sample stage=Reflection-transmission spinner; Minimum step size Phi:0.1</entry>
		<entry>Diffractometer system=EMPYREAN</entry>
		<entry>Measurement program=C:\PANalytical\Data Collector\Programs\sample-1.xrdmp, Identifier={BB6687EE-8248-4E06-B0C7-67735DEB5D7E}</entry>
		<entry>Batch program=C:\PANalytical\Data Collector\Programs\P3.xrdmp, Identifier={B7A02020-5C58-4AD1-B2DF-076289CE0779}</entry>
	</comment>
	<sample type="To be analyzed">
		<id></id>
		<name></name>
		<preparedBy></preparedBy>
	</sample>
	<xrdMeasurement measurementType="Scan" status="Completed" sampleMode="Reflection">
		<comment>
			<entry>PHD Lower Level = 4.02 (keV), PHD Upper Level = 11.27 (keV)</entry>
		</comment>
		<usedWavelength intended="K-Alpha 1">
			<kAlpha1 unit="Angstrom">1.5405980</kAlpha1>
			<kAlpha2 unit="Angstrom">1.5444260</kAlpha2>
			<kBeta unit="Angstrom">1.3922500</kBeta>
			<ratioKAlpha2KAlpha1>0.5000</ratioKAlpha2KAlpha1>
		</usedWavelength>
		<incidentBeamPath>
			<radius unit="mm">240.00</radius>
			<xRayTube id="1010048" name="Empyrean Cu LFF HR (9430 033 7310x) DK427586">
				<tension unit="kV">40.0</tension>
				<current unit="mA">40.0</current>
				<anodeMaterial>Cu</anodeMaterial>
				<focus type="Line">
					<length unit="mm">12.0</length>
					<width unit="mm">0.4</width>
					<takeOffAngle unit="deg">4.4</takeOffAngle>
				</focus>
			</xRayTube>
			<xRayMirror id="27020009" name="Bragg-Brentano HD" hybrid="false">
				<crystal type="Graded" shape="Flat">BB/HD</crystal>
				<acceptanceAngle unit="deg">0.800</acceptanceAngle>
				<length unit="mm">55.3</length>
			</xRayMirror>
			<sollerSlit id="21010002" name="Soller slits 0.04 rad.">
				<opening unit="rad">0.0400</opening>
			</sollerSlit>
			<mask id="22030009" name="Fixed mask 10 mm">
				<width unit="mm">10.00</width>
			</mask>
			<antiScatterSlit id="22010003" name="Fixed slit 1°" xsi:type="fixedAntiScatterSlitType">
				<height unit="mm">1.52</height>
			</antiScatterSlit>
			<divergenceSlit id="22010005" name="Fixed slit 1/4°" xsi:type="fixedDivergenceSlitType">
				<distanceToSample unit="mm">140.00</distanceToSample>
				<height unit="mm">0.38</height>
			</divergenceSlit>
		</incidentBeamPath>
		<diffractedBeamPath>
			<radius unit="mm">240.00</radius>
			<antiScatterSlit id="22090010" name="AS slit 8.0 mm (PIXcel)" xsi:type="fixedAntiScatterSlitType">
				<height unit="mm">8.00</height>
			</antiScatterSlit>
			<sollerSlit id="21020003" name="Large Soller slits 0.04 rad.">
				<opening unit="rad">0.0400</opening>
			</sollerSlit>
			<detector id="7010019" name="PIXcel1D-Medipix3 detector" xsi:type="rtmsDetectorType">
				<phd unit="%">
					<lowerLevel>25.0</lowerLevel>
					<upperLevel>70.0</upperLevel>
				</phd>
				<mode>Scanning</mode>
				<activeLength unit="deg">3.3482</activeLength>
			</detector>
		</diffractedBeamPath>
		<scan appendNumber="0" mode="Continuous" scanAxis="Gonio" status="Completed">
			<header>
				<startTimeStamp>2025-12-26T14:04:38+08:00</startTimeStamp>
				<endTimeStamp>2025-12-26T14:16:08+08:00</endTimeStamp>
				<author>
					<name>User</name>
				</author>
				<source>
					<applicationSoftware version="5.5a">Data Collector</applicationSoftware>
					<instrumentControlSoftware version="7.9j 20171025">EMPYREAN</instrumentControlSoftware>
					<instrumentID>0000000011214615</instrumentID>
				</source>
			</header>
			<dataPoints>
				<positions axis="2Theta" unit="deg">
					<startPosition>6.00558257</startPosition>
					<endPosition>75.99655438</endPosition>
				</positions>
				<positions axis="Omega" unit="deg">
					<startPosition>3.00279129</startPosition>
					<endPosition>37.99827719</endPosition>
				</positions>
				<positions axis="Phi" unit="deg">
					<commonPosition>0.0</commonPosition>
				</positions>
				<commonCountingTime unit="seconds">13.770</commonCountingTime>
				<intensities unit="counts">567 532 576 536 504 496 543 559 541 517 609 519 556 566 519 541 519 534 562 548 527 529 543 485 501 501 554 502 479 532 547 537 569 517 514 498 525 547 499 543 515 538 520 504 518 528 492 536 519 524 552 535 483 517 538 505 498 500 460 498 520 507 524 516 517 515 498 525 493 554 495 457 492 467 478 487 492 538 525 541 477 494 525 489 522 517 491 497 504 516 496 493 503 518 475 487 483 498 501 479 516 466 498 517 487 526 499 479 495 527 498 520 505 525 519 469 494 475 481 499 473 507 493 490 502 507 483 458 468 465 485 485 457 463 484 480 485 512 522 459 498 531 493 474 469 469 489 516 480 486 484 480 491 469 490 477 508 449 508 510 499 433 474 483 508 488 512 459 476 496 486 487 481 456 498 485 471 463 492 453 477 483 473 448 450 455 441 493 484 452 463 449 417 485 443 455 523 498 444 451 450 472 465 462 459 479 471 460 483 474 424 501 463 458 494 471 465 472 444 446 449 490 454 426 463 447 442 445 446 456 447 452 464 489 480 436 428 435 494 425 412 478 426 431 468 515 433 450 457 501 453 453 436 470 466 443 509 464 452 447 432 441 439 455 462 433 461 429 417 427 446 443 439 405 433 419 463 457 468 434 451 456 426 478 457 478 458 439 466 444 471 459 413 450 423 454 405 436 470 439 453 428 428 466 438 426 452 426 438 416 457 433 452 424 452 429 454 486 477 432 413 442 407 516 450 477 424 485 415 473 418 439 457 437 443 417 408 435 434 417 470 424 459 406 472 454 433 453 427 440 452 441 427 421 401 403 444 459 430 420 453 442 434 460 397 485 461 439 418 395 396 415 430 447 469 440 439 411 412 418 449 439 452 399 418 417 407 435 437 467 447 485 416 406 445 450 406 416 440 480 392 439 463 424 444 423 390 420 402 422 423 477 424 441 456 423 451 440 442 408 451 435 452 423 423 445 422 420 430 429 397 423 428 464 438 463 394 432 449 434 390 454 409 423 415 389 404 438 430 412 430 442 429 432 446 439 409 421 425 463 419 431 422 414 428 424 421 447 429 395 426 430 402 385 402 435 438 447 431 415 441 413 438 418 405 429 422 410 389 446 459 399 395 391 418 425 400 421 414 452 372 414 393 436 417 423 392 421 406 419 434 380 435 385 381 386 422 421 454 367 403 435 412 428 400 393 429 426 411 398 435 423 433 409 438 385 425 392 414 430 421 399 419 410 438 452 448 401 401 418 392 440 425 417 421 395 400 441 405 420 444 404 377 433 394 411 423 404 419 376 410 394 383 425 421 432 416 367 400 429 405 408 401 391 397 387 415 382 427 427 410 412 391 431 417 424 444 402 411 406 382 422 421 418 412 373 420 383 400 429 374 409 391 400 402 407 381 414 396 383 378 371 401 402 400 420 452 397 407 387 425 380 385 354 404 377 401 367 403 392 418 415 408 429 382 387 429 418 384 375 434 414 399 449 385 364 390 377 412 422 439 415 420 423 378 420 394 423 405 402 416 392 387 414 402 439 408 392 390 383 414 380 383 398 400 389 391 410 408 408 370 385 395 397 384 389 409 426 397 419 408 399 405 394 363 407 398 373 420 409 394 403 419 403 393 370 409 390 372 409 403 350 408 365 370 388 378 379 423 371 400 378 402 394 375 355 375 396 374 407 384 421 397 338 393 398 385 386 379 432 348 412 409 421 383 398 358 399 396 424 402 396 380 412 385 390 393 400 407 381 397 372 396 416 393 385 415 373 381 367 361 363 415 395 410 378 362 375 376 362 360 415 366 384 414 364 379 372 383 388 386 389 365 336 389 387 371 344 398 342 384 386 382 372 415 369 403 377 369 366 383 347 395 368 341 393 368 364 398 362 382 389 399 429 361 380 357 391 365 386 387 366 356 381 354 354 328 364 395 371 351 386 375 353 347 368 372 410 400 364 369 344 330 370 386 365 364 407 369 382 354 383 347 326 346 361 374 338 391 363 383 370 366 367 346 402 396 380 358 369 387 338 380 376 389 346 376 370 370 377 353 361 369 329 356 363 348 360 379 369 380 347 318 375 399 388 372 347 394 340 380 363 332 350 364 380 372 371 393 347 340 358 347 347 388 363 389 365 379 345 382 365 327 357 367 350 363 368 362 387 372 365 360 346 354 385 328 344 376 326 342 351 389 366 343 382 348 339 384 354 363 367 317 364 336 360 335 317 349 386 367 372 380 340 359 351 367 384 336 339 365 343 336 354 369 332 360 341 351 328 369 357 378 392 344 380 342 359 319 355 332 334 351 369 372 332 330 327 325 354 364 327 343 324 365 354 345 373 356 376 366 382 324 371 336 318 339 371 346 338 349 370 337 365 350 350 370 369 374 375 362 367 337 334 328 349 330 331 333 368 326 365 327 356 324 336 359 347 327 333 323 328 368 346 351 380 393 317 377 342 329 366 323 330 371 326 302 363 322 324 337 333 357 347 352 351 377 341 309 327 320 345 353 325 381 327 301 340 355 327 326 341 340 322 342 346 338 340 382 320 361 321 347 346 308 348 378 345 343 321 334 338 350 335 340 386 342 342 343 333 323 311 337 342 333 321 307 348 343 327 350 380 308 321 312 355 322 311 313 337 289 338 340 352 340 361 368 327 322 347 304 304 330 338 318 349 384 314 338 326 344 345 334 315 322 325 359 320 320 346 326 331 345 352 308 327 311 332 317 358 347 330 325 301 283 340 330 303 303 297 359 315 314 305 286 358 331 330 304 332 341 345 354 296 339 344 343 333 330 346 340 338 314 307 313 320 317 344 336 316 340 336 312 320 328 333 315 337 328 293 300 335 319 328 304 333 312 362 320 324 327 336 346 339 314 320 310 317 311 346 314 290 326 354 330 328 320 352 320 326 281 303 296 313 318 339 280 315 315 315 343 314 331 308 339 328 317 323 336 326 304 310 297 309 321 340 285 339 317 331 349 345 310 309 307 277 312 347 311 303 332 320 337 330 326 309 324 302 313 311 315 291 271 320 327 347 320 301 306 330 317 314 303 328 325 346 298 317 319 312 332 312 344 312 341 305 334 310 362 309 335 307 307 337 299 308 306 303 326 328 336 304 311 295 323 351 334 286 271 328 326 288 331 317 284 351 308 285 290 305 311 297 284 270 298 337 302 296 309 321 328 342 314 330 307 319 371 318 320 299 338 330 318 289 340 306 349 296 306 301 284 331 313 334 330 310 304 296 309 307 309 326 321 342 297 309 322 314 286 302 331 292 340 310 308 325 312 324 326 291 316 290 291 295 282 308 311 307 343 311 322 334 331 315 312 328 322 330 279 307 333 306 325 312 296 327 309 314 300 286 300 321 325 324 321 342 332 308 334 316 330 293 307 340 298 294 331 333 302 315 335 294 282 316 333 309 315 307 282 297 246 307 289 345 325 265 300 326 326 302 324 285 305 288 308 331 310 299 283 275 331 332 312 325 303 331 284 295 333 317 340 305 341 302 306 293 319 337 296 301 273 310 306 311 282 306 325 305 290 319 288 298 332 350 322 311 327 300 325 317 318 316 329 334 301 358 295 331 324 299 322 325 315 324 346 311 333 323 304 302 284 277 333 341 325 303 305 319 320 304 320 314 327 287 300 283 309 304 312 291 300 314 336 297 305 336 341 313 321 264 305 303 304 305 308 284 333 321 310 291 302 305 304 303 289 301 341 282 294 310 306 293 315 320 284 301 295 298 327 288 318 327 294 295 288 327 295 294 319 311 334 321 320 301 324 299 324 307 307 314 296 321 315 348 283 284 296 264 292 310 291 293 296 301 291 288 331 322 317 315 296 290 309 318 289 295 299 310 332 300 313 295 329 307 305 311 314 319 299 322 342 306 292 314 334 310 334 336 310 317 336 299 277 302 290 325 287 319 333 315 263 312 306 281 323 318 295 327 338 297 311 316 286 330 302 324 350 314 307 275 308 299 344 288 326 332 310 316 321 286 310 299 316 321 295 314 311 316 289 330 286 312 320 314 301 303 306 309 288 282 325 285 332 325 271 323 291 296 287 317 315 315 316 307 300 317 284 283 302 306 301 335 299 276 281 345 319 283 322 291 320 271 309 326 290 295 303 316 317 308 309 296 345 332 326 387 328 279 340 332 311 337 319 347 327 288 282 293 318 297 329 309 288 298 325 316 302 338 286 305 322 310 313 289 271 317 317 337 326 323 316 336 314 302 291 306 308 326 284 320 312 321 277 339 303 324 284 349 319 328 344 312 313 320 340 334 321 299 312 318 322 315 352 349 310 361 333 296 319 320 317 350 351 303 331 331 332 324 315 315 339 331 318 311 294 314 296 305 319 310 345 356 339 318 318 300 293 326 338 320 308 313 298 324 350 293 337 315 330 324 337 347 346 327 303 320 314 350 322 342 332 314 311 312 305 372 338 312 332 334 321 333 303 319 304 330 328 313 334 320 330 352 357 346 317 349 310 340 321 320 350 348 296 338 342 292 328 345 337 340 352 324 325 333 312 346 344 356 319 338 331 370 317 357 320 357 352 317 346 326 340 323 297 350 294 340 340 308 322 314 326 339 294 335 338 349 324 352 348 346 299 370 343 322 335 324 341 351 305 329 361 346 305 328 327 322 355 351 356 330 362 312 329 379 315 333 324 320 322 327 330 341 363 328 319 309 326 314 347 327 356 328 364 344 340 331 332 347 353 308 330 335 347 329 328 322 336 336 318 366 328 337 323 324 334 337 303 331 357 324 378 342 372 327 313 362 325 355 334 352 326 334 338 365 342 332 349 325 358 333 344 350 337 354 348 332 333 314 321 315 345 304 313 344 306 362 340 313 325 322 339 371 332 358 384 361 344 342 309 353 298 358 348 364 308 345 310 346 347 321 296 334 318 330 352 318 316 337 325 348 382 320 340 380 333 341 345 362 311 368 340 335 343 334 352 359 357 340 363 332 335 331 378 314 346 366 362 359 332 327 348 346 359 333 349 334 335 358 351 337 352 343 376 359 323 327 362 377 338 372 320 345 362 362 312 368 332 338 383 367 335 343 369 351 352 322 359 375 355 351 332 372 360 345 362 318 359 359 347 335 328 346 364 315 349 334 355 330 373 348 337 359 331 348 348 307 343 357 314 331 339 317 385 369 355 335 322 361 344 319 322 335 322 344 312 323 376 369 378 340 359 335 330 331 336 364 366 339 346 338 352 332 334 343 322 384 337 380 341 373 321 326 332 318 365 325 337 376 368 382 365 364 311 340 354 341 335 352 338 364 370 362 356 340 336 322 324 348 345 387 355 324 370 376 313 349 355 347 339 330 322 378 340 326 341 368 331 371 371 329 348 378 357 366 357 370 361 335 385 372 330 373 353 353 362 378 338 333 329 392 380 339 347 342 332 342 344 374 386 352 367 327 371 358 391 351 347 345 362 373 347 364 320 346 315 372 340 311 337 366 331 351 375 320 336 366 372 371 367 341 355 344 339 386 343 352 364 330 366 334 392 332 345 345 363 324 373 338 340 320 336 347 342 338 367 328 367 368 325 317 338 340 321 354 356 367 351 345 391 335 334 368 332 385 318 353 356 325 324 353 371 349 364 391 356 345 345 328 339 394 340 322 328 389 363 349 371 361 366 328 333 314 371 362 401 372 355 364 366 379 345 370 359 394 313 314 344 357 349 366 353 353 346 361 313 316 380 345 373 365 375 352 366 363 361 317 347 374 375 374 357 340 344 362 356 343 329 360 357 314 363 380 372 367 347 322 359 372 362 360 345 357 372 374 310 329 384 320 332 355 354 327 344 340 357 335 390 345 311 370 367 361 343 366 371 351 362 337 346 361 363 373 354 339 374 362 333 340 369 360 312 298 303 357 314 336 347 349 390 338 350 355 337 355 315 360 369 358 335 391 333 339 361 351 364 348 357 338 337 358 329 359 349 341 342 375 344 337 366 344 377 328 340 372 331 354 342 336 338 337 316 334 350 337 347 358 343 367 354 359 364 350 315 349 330 328 331 358 357 362 322 373 357 345 345 361 331 334 342 316 329 316 341 337 385 373 344 325 306 341 309 347 339 321 360 328 360 347 349 338 370 359 382 326 351 339 335 333 378 330 348 386 316 334 346 348 352 330 353 339 352 302 337 362 332 338 330 340 351 317 311 323 355 327 332 321 358 348 329 311 346 361 336 311 362 315 331 349 321 343 345 358 366 325 359 352 360 359 383 349 354 329 366 317 359 341 357 326 353 297 336 302 348 326 364 352 341 293 331 357 331 343 331 337 351 342 353 334 338 339 352 351 320 322 331 324 332 353 321 297 338 355 353 364 365 343 345 304 343 341 356 325 368 363 368 363 345 330 359 324 354 329 311 372 333 316 330 311 328 349 327 340 318 356 347 344 324 323 324 308 327 348 352 326 357 382 323 327 331 358 337 334 336 337 347 364 344 332 345 356 363 360 338 344 343 343 329 302 359 333 295 328 315 319 337 319 332 298 320 341 335 339 352 339 328 338 359 307 345 309 371 375 352 356 320 359 316 318 297 324 343 351 309 315 328 337 327 344 315 346 360 342 334 314 356 320 370 315 341 359 311 340 350 322 326 315 350 362 321 327 362 347 341 317 288 357 371 326 333 341 319 333 327 308 358 341 336 306 335 295 323 309 345 308 360 343 343 334 340 348 358 327 303 348 340 351 312 308 348 326 332 306 296 357 335 351 312 383 311 333 335 314 318 361 338 338 323 351 310 343 328 346 348 330 359 340 327 321 346 335 316 368 335 330 337 384 320 327 344 314 335 314 328 313 349 312 347 317 344 333 359 324 326 334 326 325 357 316 333 329 337 351 343 340 325 340 343 335 365 299 328 290 323 339 323 327 344 340 350 328 314 320 340 314 360 319 351 372 326 319 335 369 321 294 321 323 308 339 350 350 304 336 345 313 356 312 305 334 311 341 321 312 353 338 333 335 312 312 326 313 348 358 288 325 301 350 328 322 311 369 351 304 322 328 326 349 299 320 314 338 344 326 341 333 325 327 290 304 333 335 316 304 297 309 330 341 307 300 314 304 350 332 331 353 334 316 315 358 331 343 326 328 315 320 351 321 332 317 350 318 341 342 323 341 334 345 338 346 337 293 300 347 316 304 272 333 327 335 321 328 310 359 320 317 300 332 304 320 306 339 326 319 309 334 303 341 299 318 345 331 335 306 313 294 343 310 348 304 302 343 297 344 322 344 308 329 317 329 310 304 301 343 313 342 318 311 325 319 324 336 326 340 318 347 295 331 333 347 325 328 327 336 313 302 324 319 342 328 321 306 268 304 306 343 330 324 338 291 326 314 326 315 301 329 290 309 316 312 314 284 318 341 312 287 333 291 324 342 338 320 305 320 308 303 327 360 312 314 345 302 306 331 316 306 320 331 336 339 305 340 319 310 277 335 325 321 322 310 347 349 312 341 316 292 358 316 325 321 305 331 276 310 295 315 325 338 319 346 308 298 306 298 332 332 312 277 309 335 335 308 307 330 331 285 317 317 328 319 321 301 345 277 314 321 327 307 331 313 308 284 331 332 293 298 334 328 304 338 359 314 340 308 332 307 315 319 314 311 300 320 310 317 328 314 314 330 330 335 318 316 312 346 305 293 306 305 324 320 312 306 299 326 332 338 325 345 325 330 303 309 293 298 323 328 285 341 305 332 291 303 332 301 349 298 305 295 299 289 328 326 322 318 331 330 302 304 315 296 286 310 296 283 279 301 322 307 271 300 326 328 308 302 328 335 350 299 305 331 330 313 320 297 302 301 354 298 350 304 313 312 294 343 324 303 305 304 278 336 292 325 318 307 303 359 311 293 291 294 316 311 308 276 312 319 305 331 322 300 271 349 320 316 293 327 339 324 316 304 306 310 310 331 284 345 274 289 353 317 305 286 318 331 306 280 334 311 310 345 304 303 315 303 297 325 303 330 291 289 295 330 321 287 319 313 284 325 298 315 284 281 281 296 308 312 301 321 329 309 324 312 314 318 326 299 304 294 298 292 305 326 308 310 291 288 331 301 330 307 339 323 328 327 313 299 305 287 324 328 312 279 312 316 303 299 323 272 259 299 271 310 303 276 326 304 313 326 300 300 315 303 309 293 297 313 311 330 298 290 314 287 316 286 309 323 288 318 274 347 285 322 320 300 297 276 323 312 312 311 322 309 314 302 296 336 321 325 338 294 308 288 314 280 280 318 299 301 296 282 315 322 290 294 285 325 295 337 305 286 303 305 312 297 257 327 317 306 312 274 312 309 314 287 310 310 326 324 311 296 299 304 281 282 301 291 279 298 277 323 308 329 327 318 296 304 323 319 290 288 317 316 291 321 317 284 276 288 312 280 317 285 301 306 307 333 297 306 293 311 320 304 306 270 300 269 297 329 263 293 320 279 296 367 322 297 278 349 313 321 313 297 320 276 284 290 301 302 326 304 317 317 277 295 329 302 314 288 347 327 322 306 301 288 334 282 283 321 316 286 327 265 302 250 305 310 336 313 294 332 315 325 331 287 305 312 294 321 313 325 288 316 281 298 314 302 313 329 309 328 297 276 321 266 278 325 322 282 289 323 295 310 324 300 324 300 315 294 282 280 313 316 293 316 288 307 329 303 312 301 297 322 328 304 318 306 280 308 318 289 279 326 314 306 297 269 328 307 312 324 291 304 287 313 302 307 313 305 284 310 308 279 299 304 282 328 311 312 337 288 299 319 292 319 302 302 306 295 289 290 312 297 294 307 310 335 313 269 307 294 316 261 296 299 321 315 331 311 315 320 310 278 289 276 331 273 309 329 302 328 305 292 296 338 294 299 306 295 323 277 331 324 302 291 298 310 302 300 310 305 324 296 303 284 308 327 292 285 299 309 319 293 292 292 299 330 286 309 289 301 293 303 277 314 320 285 307 289 307 306 317 307 297 314 329 293 293 331 306 321 292 286 271 324 299 292 320 306 291 307 280 295 297 315 279 321 322 285 297 298 318 263 309 289 310 313 296 302 281 289 302 323 262 322 335 294 303 279 306 294 304 295 300 292 304 330 288 309 295 316 302 320 310 321 338 306 295 322 271 280 339 311 332 335 306 318 317 336 310 294 297 293 321 299 291 331 322 337 291 300 313 306 285 292 284 317 300 273 291 303 282 298 281 289 293 324 283 276 311 300 346 285 296 259 271 299 299 300 311 346 308 291 315 311 304 311 296 324 271 320 276 323 278 296 304 330 291 285 293 287 320 291 301 303 306 275 280 291 285 279 281 312 292 304 307 287 296 315 280 298 287 285 327 285 322 310 317 291 304 310 290 273 288 272 283 279 318 303 267 274 320 304 284 287 291 336 291 290 260 309 311 291 277 312 289 306 305 311 297 299 306 309 301 314 280 283 261 276 274 299 287 289 276 264 303 288 300 288 338 294 264 297 287 293 307 340 306 282 300 286 310 293 314 292 285 305 326 287 348 295 303 280 321 305 278 293 329 290 273 317 310 293 306 283 297 287 351 311 275 312 272 289 277 276 320 315 268 272 274 309 282 306 284 288 287 296 283 249 301 284 272 307 323 304 263 278 285 291 291 266 279 290 286 261 259 310 300 269 246 277 273 295 290 289 297 299 298 289 311 281 320 302 277 279 286 291 270 276 277 262 271 299 297 291 302 282 319 294 296 293 310 279 284 312 324 265 285 289 280 293 275 298 295 286 292 293 273 310 292 290 293 307 275 290 285 294 242 321 292 284 287 309 261 260 314 313 284 318 272 288 281 283 292 297 283 271 271 294 290 301 289 317 295 315 289 289 299 285 290 290 277 289 282 301 272 301 282 325 277 291 296 302 274 317 311 293 288 326 277 277 263 294 281 288 325 299 261 258 293 331 309 264 294 261 285 289 272 279 267 302 318 299 288 288 282 279 279 281 297 306 309 299 308 283 288 293 307 301 267 320 287 306 302 291 314 317 286 296 317 291 303 284 264 250 296 292 288 285 284 281 272 292 305 287 293 295 295 278 298 280 289 302 301 315 278 256 269 301 294 305 294 309 302 305 290 295 327 292 304 288 283 305 258 303 293 289 292 247 295 294 287 290 333 292 301 342 316 317 300 268 278 320 270 273 295 283 295 283 290 299 301 275 284 266 296 290 295 314 306 293 302 277 300 289 284 315 296 300 298 298 296 306 294 316 277 289 272 298 287 318 285 340 276 289 281 298 308 290 313 279 282 263 297 317 289 266 304 283 302 280 279 302 310 303 291 278 286 290 262 286 284 288 278 284 318 307 274 279 301 301 311 307 313 276 341 278 310 296 313 287 304 316 287 285 243 290 276 274 305 294 309 289 293 277 267 275 295 285 323 285 285 290 283 306 301 274 309 277 319 275 325 296 296 306 289 280 292 261 287 275 298 304 303 292 277 280 280 295 269 285 290 275 315 325 333 284 332 329 284 310 311 293 283 287 294 295 317 282 321 303 290 299 280 281 281 278 317 306 319 305 311 287 309 305 306 269 268 316 315 315 310 290 287 282 267 304 287 291 325 305 304 312 333 320 339 286 303 291 294 328 288 298 290 257 290 287 297 285 258 310 277 285 267 289 288 294 297 290 288 289 271 280 279 276 298 290 305 296 288 292 290 314 296 290 285 297 301 269 286 286 297 294 309 315 290 306 295 323 302 291 284 302 280 283 268 303 334 313 301 292 328 280 332 315 327 311 315 303 314 322 293 296 275 324 323 309 286 309 321 328 281 289 293 307 278 283 280 305 312 263 303 319 303 311 318 289 291 291 303 283 268 332 273 296 298 272 279 297 310 283 311 275 278 271 292 300 287 276 337 326 327 287 284 300 284 259 306 279 273 280 291 277 300 303 300 302 294 294 272 302 306 259 299 280 293 293 277 315 286 322 297 298 286 293 286 315 295 291 299 317 306 294 292 326 272 279 293 283 318 324 302 276 315 277 278 268 283 306 266 305 280 260 287 257 307 259 281 307 302 264 279 272 321 329 275 315 294 288 268 266 263 250 270 240 300 287 276 297 250 317 282 275 303 277 298 239 286 301 281 276 280 285 286 284 280 290 318 292 266 265 259 246 267 297 263 242 285 271 294 263 273 271 301 268 282 267 266 275 277 291 248 225 273 257 280 296 262 271 239 247 261 303 272 261 250 242 264 269 269 259 272 277 259 262 233 274 246 248 281 243 269 282 262 280 264 292 260 271 268 282 249 243 242 299 273 286 218 286 229 235 268 236 236 224 263 270 238 278 256 268 227 284 251 225 231 261 280 233 266 272 272 221 243 259 276 298 245 264 299 279 242 228 243 247 265 238 256 280 262 263 288 261 238 289 264 236 263 244 248 249 245 264 261 257 263 266 236 242 227 273 266 273 227 235 239 275 257 271 230 243 270 240 245 261 232 262 264 278 262 258 247 227 246 246 281 226 271 271 276 263 260 241 279 261 232 226 236 264 258 239 262 283 266 229 259 270 246 251 273 268 208 264 271 265 238 284 259 271 215 251 259 267 241 231 246 250 260 277 276 234 264 257 290 242 237 269 266 242 242 289 250 279 256 237 271 248 280 261 270 257 249 258 235 264 284 237 250 268 259 265 267 213 243 278 263 259 267 238 268 250 225 265 303 248 226 247 275 267 269 229 248 227 257 269 264 262 271 238 276 223 236 263 207 214 218 276 263 262 227 233 246 269 249 244 259 271 247 220 229 278 266 274 236 257 230 247 245 283 244 235 256 248 272 237 236 261 265 238 260 258 233 269 256 270 238 206 249 228 259 250 241 257 262 231 258 213 242 256 200 223 249 202 215 221 216 256 237 260 244 260 245 271 237 220 218 226 230 258 237 264 244 240 227 225 232 241 247 233 228 248 235 240 213 231 234 237 222 226 219 227 247 238 246 263 228 237 234 258 219 222 237 225 212 243 219 216 258 222 230 228 229 247 248 242 260 233 230 244 230 238 250 263 207 216 234 264 220 239 224 234 241 214 232 208 229 230 216 215 224 200 217 265 235 234 269 201 218 232 222 235 235 210 249 222 212 249 227 235 243 258 227 227 223 229 202 223 217 222 211 212 251 217 227 235 223 239 236 182 212 237 215 211 268 238 205 192 202 216 222 192 232 231 218 237 224 215 224 221 206 209 213 240 228 226 214 216 234 201 223 237 266 224 239 213 230 242 239 199 208 215 237 241 204 242 216 212 204 220 214 249 240 216 211 222 201 216 247 247 224 214 200 214 199 227 229 200 209 225 212 193 247 232 211 225 227 219 210 243 241 186 197 258 209 213 235 214 246 208 231 229 222 230 209 233 226 210 250 240 223 234 260 214 241 225 209 261 227 227 237 235 210 218 242 226 244 205 190 221 217 214 218 209 186 219 206 208 224 202 227 206 220 208 226 215 219 215 202 242 202 224 220 217 202 218 187 204 200 212 196 223 225 208 214 225 218 249 220 238 218 243 196 219 210 215 224 212 237 208 220 190 239 226 190 208 225 247 203 203 204 190 212 249 238 216 214 217 214 218 226 215 237 209 215 207 218 205 224 227 205 230 218 199 211 201 206 213 233 212 199 199 207 223 212 223 199 219 206 196 245 219 203 195 236 203 224 218 208 226 181 200 217 220 210 206 210 217 208 208 222 216 228 207 203 204 209 211 243 209 226 214 261 198 217 222 224 232 204 220 193 208 235 212 223 238 216 222 203 199 216 218 221 225 221 220 218 206 236 224 212 182 229 214 220 218 210 194 215 210 213 215 197 226 212 230 241 215 224 192 215 204 232 201 228 208 249 237 214 227 222 202 264 226 234 234 195 241 203 242 215 232 243 231 208 229 220 218 235 224 231 209 216 220 264 225 219 244 239 242 214 242 236 221 223 230 216 216 204 226 229 217 201 271 204 237 210 218 208 240 248 228 228 231 203 281 206 212 218 207 212 248 215 236 229 232 218 206 218 219 232 218 206 216 199 212 217 236 206 206 219 236 227 228 195 216 228 236 200 203 245 220 239 220 227 204 220 214 211 209 215 230 235 201 238 233 222 241 247 218 236 202 197 221 225 212 227 210 229 206 257 224 230 225 247 229 259 225 245 224 242 223 226 227 232 221 211 221 228 201 239 180 214 226 209 220 217 219 258 245 236 235 238 214 228 242 240 213 212 235 211 234 252 229 244 224 202 222 229 233 230 236 249 245 260 218 229 261 238 216 231 247 261 277 230 238 242 228 280 274 243 245 243 258 240 211 271 257 265 260 270 279 288 280 239 244 292 276 269 276 275 289 279 280 281 282 275 299 296 264 273 314 267 282 262 276 288 297 290 248 292 263 305 265 288 276 278 235 262 272 275 266 242 256 246 280 234 273 249 278 270 276 237 244 281 271 263 270 271 273 226 235 244 257 264 236 269 304 268 249 232 276 270 264 240 260 263 241 247 245 245 218 237 281 267 225 246 248 274 277 247 262 243 305 273 271 207 257 276 256 257 271 263 241 261 291 261 270 264 232 250 264 256 295 248 263 265 276 303 262 276 266 265 269 291 282 276 235 248 290 247 248 282 276 281 280 239 271 242 278 279 274 270 303 294 316 285 266 272 283 270 269 269 304 249 296 269 272 257 276 317 244 280 256 311 264 297 295 292 290 287 295 299 290 286 296 260 284 289 262 270 289 268 278 249 263 282 278 287 260 289 310 293 260 276 272 279 266 287 296 284 256 262 280 289 312 264 279 283 300 290 290 293 296 242 273 295 300 278 279 309 292 265 276 284 312 268 299 280 273 273 296 280 278 283 312 272 297 298 296 273 276 292 292 280 275 261 267 303 258 274 280 250 289 242 274 250 260 279 273 315 304 280 246 277 276 270 273 314 273 269 273 288 297 276 293 288 261 294 270 292 241 271 265 262 287 264 293 257 275 280 234 243 257 263 264 239 282 271 240 272 257 288 246 257 230 257 273 246 239 263 231 261 278 241 235 232 233 241 239 235 262 243 245 241 250 246 235 223 237 241 235 270 263 246 230 250 243 238 236 217 284 216 217 237 235 240 232 222 219 210 213 212 269 256 257 232 232 238 221 232 236 224 242 224 234 193 200 214 261 208 265 226 202 219 231 232 248 208 209 240 232 215 210 190 231 223 222 209 235 204 237 231 212 264 241 222 210 235 213 229 234 231 202 218 205 217 198 212 217 200 204 239 236 233 198 224 218 237 224 220 213 208 203 181 208 205 215 220 218 217 180 225 209 173 210 203 248 222 222 212 179 190 190 195 208 197 195 230 212 200 191 217 200 206 213 193 195 197 222 196 177 194 175 183 180 183 196 184 210 204 211 231 212 194 195 206 188 220 200 207 205 200 200 175 190 200 197 208 198 196 202 205 188 215 198 239 203 201 195 190 210 185 219 195 207 191 200 191 192 201 208 184 193 190 171 168 210 191 197 202 206 166 169 189 169 189 214 215 171 158 200 216 205 177 222 198 176 197 189 190 204 181 173 174 168 173 215 190 203 183 190 215 191 184 170 201 191 194 158 186 185 175 192 187 198 200 189 188 180 203 178 185 186 203 185 195 173 191 194 174 195 194 178 202 170 192 187 188 223 145 199 186 194 186 196 183 202 163 156 194 195 182 198 189 194 199 189 197 196 206 196 179 187 185 171 191 187 195 186 180 183 202 182 184 201 190 173 182 185 176 180 173 201 186 165 181 176 186 188 175 187 179 172 174 194 185 183 186 174 186 168 201 205 192 173 200 184 192 168 170 182 179 193 154 182 183 159 179 163 176 164 187 202 168 149 180 183 184 179 169 199 184 179 168 180 179 186 190 191 176 156 183 190 155 170 170 174 166 155 182 212 173 176 210 156 192 167 174 169 203 183 139 177 151 185 156 159 189 174 192 188 171 176 202 182 192 177 150 177 167 192 174 171 162 186 169 188 187 174 217 171 186 175 180 172 162 184 158 170 168 194 184 195 196 191 194 190 180 150 165 174 163 174 190 158 193 184 185 199 161 178 160 158 190 170 166 175 169 183 170 183 181 192 187 161 180 165 155 160 182 167 169 178 164 178 157 176 158 172 184 161 185 165 187 186 167 189 160 171 178 176 182 193 175 177 170 178 193 176 172 168 160 160 147 165 193 167 160 160 177 184 178 162 185 159 169 193 168 170 180 213 163 162 177 172 187 159 188 205 198 138 183 151 178 175 178 186 170 163 187 177 185 160 181 167 184 183 162 174 188 155 157 177 175 189 183 160 170 163 181 156 165 176 160 169 166 198 168 163 176 172 171 172 150 172 155 162 191 168 150 154 161 165 184 169 170 188 193 164 166 181 174 182 146 175 168 188 176 174 154 172 186 149 148 202 158 179 157 174 149 161 166 155 182 179 192 169 156 156 160 184 178 166 165 158 172 170 162 163 172 178 186 178 170 179 187 183 165 194 172 180 164 161 170 166 189 196 174 136 178 142 183 179 165 162 183 178 169 164 169 158 180 161 180 172 170 170 171 181 166 158 190 155 179 203 153 160 167 167 171 199 142 135 165 193 171 146 181 161 185 169 172 173 167 151 151 162 165 160 153 150 172 183 150 153 149 189 182 168 164 196 161 147 188 168 162 173 155 145 151 168 165 172 172 171 146 194 177 164 176 170 167 175 170 180 171 172 157 158 178 159 180 152 190 162 175 165 160 184 154 184 163 162 169 166 149 170 145 192 172 174 181 180 159 144 167 196 166 175 159 176 160 182 137 171 158 166 151 180 152 205 168 186 147 173 137 203 194 143 181 190 161 159 148 179 184 165 154 164 163 165 176 173 191 149 169 175 172 143 188 151 188 188 154 165 163 195 177 162 159 185 162 171 146 159 183 156 159 170 147 154 163 181 138 158 175 148 160 186 175 169 162 170 176 180 174 158 191 186 160 173 167 162 189 161 177 173 155 157 210 156 172 188 173 155 190 165 184 181 175 174 197 150 175 164 195 173 157 175 187 186 150 159 168 163 145 179 152 157 161 172 159 145 170 175 168 183 149 175 176 173 149 174 152 169 169 166 169 161 186 159 157 171 155 172 169 172 168 178 171 186 155 198 170 157 161 172 172 183 187 144 169 161 172 165 179 180 195 187 160 186 177 150 153 152 175 159 146 199 181 177 164 164 148 150 157 147 178 174 152 171 179 163 163 159 157 143 147 166 181 151 145 183 160 177 165 154 171 171 168 148 157 174 168 174 180 167 155 180 177 186 190 173 147 180 150 153 149 168 171 151 168 175 168 141 190 160 175 147 162 152 170 146 180 163 160 181 177 153 170 177 143 156 144 166 179 183 220 173 162 180 169 154 177 160 194 161 188 147 171 167 174 164 168 170 157 169 179 175 176 157 164 150 159 147 187 157 168 172 162 188 149 161 188 173 165 169 163 172 151 174 183 163 174 155 173 168 148 163 159 144 157 156 174 176 175 140 157 148 156 166 173 175 158 172 176 176 165 162 188 144 172 172 174 154 185 171 173 194 154 173 164 152 186 150 157 173 163 187 195 158 157 157 164 173 179 190 165 175 163 170 161 159 160 167 168 176 175 178 171 210 160 168 166 157 176 180 191 185 180 175 176 166 153 155 186 172 168 151 183 164 150 169 168 165 148 179 137 155 162 191 164 156 167 156 150 161 143 168 171 157 179 161 158 142 150 165 160 151 185 189 193 177 164 165 184 167 147 176 181 186 162 164 166 169 151 178 178 190 176 159 177 160 168 186 173 148 153 169 178 185 196 171 165 160 166 171 169 175 203 168 158 174 178 167 174 163 171 162 180 167 178 168 155 156 177 173 175 165 186 177 147 178 154 164 156 172 178 169 162 144 193 163 154 174 170 163 165 163 198 172 171 161 158 166 173 169 173 154 172 163 159 164 152 179 175 170 169 161 162 173 167 168 163 174 148 168 178 183 171 159 155 163 153 160 180 171 176 164 186 166 183 161 159 155 155 168 180 183 179 170 177 176 170 185 149 159 167 182 163 174 161 180 172 171 194 168 159 198 168 162 173 183 184 165 168 178 169 178 167 185 178 159 178 154 155 193 173 168 210 171 190 164 184 173 187 168 158 174 150 152 163 177 188 186 164 154 195 178 178 155 161 188 154 161 189 180 154 154 194 178 141 176 149 164 189 162 157 186 178 186 194 165 171 159 162 183 160 149 182 161 203 177 139 163 155 184 168 186 194 165 171 151 141 165 184 168 177 178 171 166 181 164 188 159 207 165 155 173 157 157 174 164 151 160 174 178 182 166 162 176 177 192 162 168 177 169 187 169 154 184 191 168 174 151 171 165 160 161 188 161 163 164 183 184 176 158 175 174 179 163 166 172 177 160 188 168 169 172 183 165 145 131 155 162 157 193 173 195 157 171 184 153 161 155 146 171 175 202 181 162 197 176 163 165 191 158 190 184 182 163 173 189 198 181 179 185 188 203 183 177 153 165 196 163 162 176 192 179 177 172 163 165 197 189 176 182 173 171 179 168 176 194 159 167 170 176 197 204 172 160 149 185 178 188 172 201 171 183 171 149 162 189 170 174 187 182 184 211 175 186 190 174 174 173 157 188 184 171 193 169 161 176 173 176 174 167 161 185 199 164 155 204 183 171 185 154 176 179 178 183 151 176 170 187 191 198 171 179 169 200 185 168 205 165 184 182 195 197 191 181 180 186 182 164 178 191 181 181 186 180 166 191 186 178 166 184 182 186 180 182 179 183 179 185 200 181 179 178 181 162 166 182 179 191 180 177 184 194 176 183 174 179 190 194 181 176 200 190 194 176 211 200 177 177 176 181 197 177 188 171 162 185 201 193 163 165 186 220 182 189 178 213 184 160 181 186 186 187 180 180 180 160 194 172 186 165 180 192 199 191 164 184 166 177 220 191 193 170 176 164 164 193 185 201 196 174 164 172 195 188 183 174 187 170 177 177 172 173 173 141 182 189 170 161 191 182 170 168 169 160 176 206 162 195 184 177 188 185 162 172 172 182 181 177 173 188 183 182 191 177 187 193 202 196 185 172 194 173 181 167 188 185 148 172 155 192 199 162 181 171 168 202 184 182 187 171 180 193 152 187 172 175 173 198 197 201 189 186 189 187 171 215 165 197 193 175 165 198 184 192 185 164 188 198 182 174 171 182 182 187 205 199 186 190 183 176 181 210 212 187 201 200 164 173 209 176 203 190 198 190 181 188 180 184 207 180 190 188 180 188 187 184 205 180 189 179 185 181 159 164 210 188 188 204 179 169 153 176 187 177 188 192 158 195 170 179 191 176 190 164 192 183 175 188 164 199 204 170 172 181 167 174 185 168 155 176 187 203 181 173 195 167 183 169 182 179 196 176 161 196 163 229 193 178 156 195 192 169 185 204 193 181 170 194 161 220 190 216 160 195 194 207 150 185 193 210 212 166 195 228 176 184 170 178 190 190 202 213 214 196 210 207 186 199 206 189 197 177 200 170 209 184 195 200 189 174 200 177 192 214 182 198 190 207 179 162 188 193 187 187 202 187 174 183 175 179 179 193 196 188 186 200 186 185 195 205 184 201 181 206 221 185 190 192 202 166 181 190 178 184 193 197 167 198 178 219 196 172 188 201 184 214 200 205 217 186 202 171 205 193 215 211 184 191 226 207 206 180 217 205 186 195 216 187 199 177 195 212 223 170 216 198 210 191 199 220 203 218 187 189 198 202 199 182 186 225 220 199 197 213 208 184 172 204 186 205 192 203 194 189 206 198 189 213 192 204 203 190 183 197 213 195 183 194 181 214 216 187 196 229 198 179 201 212 180 209 200 173 178 185 218 217 210 195 180 214 210 194 193 180 200 187 188 204 197 218 205 208 217 219 191 187 181 206 196 192 187 197 186 186 211 227 196 198 205 215 176 214 199 205 196 237 226 207 202 203 207 204 189 220 220 210 176 211 225 199 206 213 176 204 186 214 200 192 205 205 202 208 194 194 192 202 201 211 195 203 205 205 195 224 194 216 178 190 209 226 210 185 193 191 193 202 190 203 199 168 201 207 200 215 231 183 182 195 188 202 202 193 203 206 180 225 189 214 183 213 230 201 212 179 181 193 185 217 198 197 184 186 211 194 200 189 195 191 194 186 194 191 195 223 207 225 174 181 196 194 176 202 173 212 182 189 182 193 212 224 200 166 208 226 210 215 213 212 210 194 214 202 188 215 188 200 183 199 190 204 206 213 220 206 211 190 210 212 202 210 183 199 198 208 217 218 203 195 195 187 192 207 201 208 206 202 196 195 187 204 195 182 204 186 196 189 190 174 181 207 210 205 204 205 192 225 186 213 203 200 202 194 187 187 187 189 190 183 218 186 192 176 180 200 210 204 194 204 211 199 195 189 179 203 178 193 192 172 192 186 206 207 196 209 186 210 199 198 154 219 189 180 188 217 203 195 195 203 220 202 196 164 190 208 205 178 169 201 193 184 203 187 193 194 176 190 171 193 187 186 203 202 169 183 169 183 195 187 204 206 178 209 231 185 175 203 205 198 195 207 212 194 189 183 173 180 192 189 217 193 217 200 187 237 203 196 171 192 212 176 199 195 181 192 202 186 185 177 195 215 177 202 196 202 179 187 197 185 179 215 197 215 210 198 192 210 181 209 202 171 210 209 195 183 204 187 193 201 215 203 176 216 179 224 216 203 185 210 186 175 211 199 186 228 202 190 203 186 194 190 196 203 185 165 201 216 194 197 180 198 211 195 179 184 167 182 184 205 208 210 197 180 158 212 176 204 204 215 211 150 195 184 208 184 204 201 221 199 221 199 182 217 203 173 197 190 193 186 211 188 188 160 198 179 186 173 170 210 203 197 193 196 202 164 194 197 179 200 211 204 191 200 185 175 197 214 206 197 183 204 205 199 207 191 182 215 216 209 191 196 195 208 207 217 215 188 193 208 183 203 205 231 187 170 222 202 207 217 200 207 175 204 222 201 190 215 182 201 217 199 187 229 204 200 184 173 239 221 206 192 201 208 207 189 176 173 218 219 217 193 216 193 180 185 199 211 176 182 221 222 162 208 197 201 198 173 204 211 170 191 203 217 197 204 189 170 229 197 193 197 179 198 191 199 196 173 200 185 192 198 176 171 211 208 203 194 215 189 208 190 174 190 193 189 171 208 223 167 198 182 218 249 199 213 213 179 194 192 198 194 201 208 181 210 202 186 193 215 189 225 221 229 225 244 190 215 196 189 188 197 201 213 210 176 211 196 210 238 215 205 215 201 201 215 187 212 212 195 230 198 219 215 196 238 237 201 223 192 213 220 213 195 235 194 205 206 234 205 204 200 199 216 212 202 198 216 216 210 192 210 224 208 200 209 226 224 220 219 216 210 212 223 195 198 210 248 208 211 220 213 205 228 207 225 222 225 222 224 228 219 232 209 217 206 206 218 206 246 220 206 206 217 227 201 237 225 226 256 192 200 213 202 238 208 192 232 238 266 205 217 231 235 205 226 182 197 223 201 184 206 213 246 208 226 222 213 223 223 211 182 245 205 221 216 208 217 224 227 232 227 210 223 257 211 271 246 206 209 230 230 245 228 245 237 233 231 258 229 285 216 244 245 224 244 225 235 245 223 234 222 236 239 245 231 242 218 244 235 240 247 225 235 241 236 249 220 256 268 248 237 213 226 245 214 239 221 246 243 266 228 214 235 231 231 258 258 240 239 243 262 264 287 296 241 266 267 247 257 231 278 269 242 228 250 264 272 276 239 262 237 278 239 285 224 262 233 276 297 226 277 287 295 321 243 230 291 266 274 281 273 283 293 318 290 297 266 246 277 294 306 280 261 277 248 280 295 260 261 289 311 282 309 291 274 289 264 290 285 309 277 297 281 291 301 300 266 281 271 281 262 312 306 306 276 263 310 292 261 293 283 301 296 286 279 310 304 311 328 313 284 286 264 302 293 300 288 327 310 336 335 285 275 312 332 293 313 307 304 281 302 306 305 297 336 310 321 281 335 300 324 303 305 312 322 310 292 288 317 318 326 295 314 334 306 288 293 318 336 298 298 295 327 289 340 293 282 276 292 273 282 284 308 310 277 295 334 339 286 301 322 346 319 308 306 288 299 300 269 293 298 301 347 291 281 288 289 315 284 309 286 293 292 297 312 281 342 287 300 273 295 292 298 297 301 286 267 309 271 296 270 282 258 292 263 300 317 280 283 266 269 292 284 261 276 280 278 308 263 304 265 310 274 281 300 257 289 266 302 269 261 243 261 270 266 266 249 238 238 240 226 272 271 222 245 261 240 250 261 270 238 234 286 244 222 273 258 212 259 258 247 272 246 246 242 266 257 235 220 209 269 233 193 241 208 259 246 240 237 230 249 231 209 242 267 217 217 234 217 236 248 223 213 214 212 208 208 242 231 208 272 223 224 204 216 215 211 224 220 238 224 195 242 221 229 210 215 210 218 200 204 219 229 188 206 216 218 210 218 214 208 215 223 201 221 229 204 208 198 214 204 219 201 182 191 200 196 191 248 204 243 192 218 209 202 191 211 224 205 195 225 215 189 206 184 185 225 193 207 206 200 195 202 210 171 180 217 206 210 195 197 185 198 194 191 176 202 206 205 215 181 189 189 208 188 193 177 201 196 196 198 195 209 219 190 190 177 206 219 201 203 175 190 187 207 186 171 174 171 197 192 202 194 164 193 172 197 187 175 193 181 181 197 190 172 212 202 200 167 187 186 170 171 180 196 164 195 174 214 194 201 191 182 188 182 186 185 155 180 197 207 181 167 190 165 191 171 199 195 182 172 183 147 189 198 188 170 221 193 168 174 174 181 185 185 176 202 172 174 142 178 176 175 184 161 157 169 163 186 180 174 166 187 183 183 146 194 177 191 167 180 197 171 166 171 181 162 195 198 167 203 176 170 190 180 158 160 176 147 158 175 176 179 179 141 162 160 147 147 169 177 150 197 168 154 187 162 139 173 159 181 163 193 186 180 170 173 180 187 194 170 215 174 144 161 175 179 164 155 176 171 185 173 144 158 190 186 146 167 164 170 155 160 152 197 142 178 175 151 185 161 172 172 161 176 180 163 170 192 178 168 162 161 174 189 151 193 168 155 200 201 157 154 162 168 159 170 189 198 189 151 166 151 155 172 164 175 164 178 181 178 155 164 187 143 146 144 169 168 155 165 171 148 168 167 146 184 158 164 177 161 148 170 164 142 176 183 162 193 176 177 176 175 195 162 157 149 147 177 163 184 176 154 179 151 171 166 169 158 174 156 176 140 185 156 170 164 162 175 158 146 183 164 172 157 161 156 177 148 155 163 150 176 175 151 159 160 154 151 149 168 182 150 177 161 158 175 151 167 162 162 162 149 176 166 186 166 149 149 160 139 161 159 157 156 156 161 150 157 138 161 154 170 171 153 168 168 136 184 149 153 156 164 151 162 140 195 175 192 160 182 162 133 163 165 160 154 145 141 159 169 164 174 161 167 146 154 152 165 163 169 159 154 154 170 169 140 172 178 164 170 150 160 190 138 154 150 161 168 161 172 143 152 159 139 169 158 170 161 163 184 178 172 153 136 165 156 174 153 144 139 141 122 148 135 164 148 155 159 153 156 164 138 139 158 152 155 160 161 168 173 162 151 153 176 141 170 160 157 153 143 138 153 139 168 145 142 140 151 150 160 155 152 151 146 145 139 148 156 132 187 168 148 152 158 168 174 169 141 184 162 170 144 161 145 147 171 149 184 154 168 159 142 145 158 157 148 157 179 147 181 169 160 143 150 152 156 153 166 126 154 153 123 151 130 149 175 162 155 162 150 147 135 131 182 149 152 169 156 158 146 159 152 145 138 179 187 155 135 167 132 157 138 146 158 159 144 146 144 148 172 161 139 163 144 143 124 147 143 143 161 164 150 140 161 164 153 171 150 145 143 167 158 116 164 164 163 138 153 158 152 172 163 152 141 154 170 161 166 160 140 134 146 134 149 176 145 148 159 165 152 138 137 137 158 163 143 168 157 134 150 153 135 161 154 144 155 156 162 138 159 161 162 127 150 164 126 147 145 137 170 137 170 155 151 156 154 151 146 157 145 153 150 140 155 140 140 150 130 127 128 140 154 147 138 177 178 154 146 166 154 155 149 170 148 152 142 142 141 153 162 134 117 159 148 160 136 163 132 179 150 144 146 126 175 171 156 149 142 146 155 150 150 141 152 146 131 148 134 142 164 139 152 150 135 151 134 146 152 159 156 139 149 146 145 140 140 140 137 157 150 149 152 132 144 150 159 133 125 154 145 162 156 132 154 146 127 153 147 172 154 167 152 169 158 149 134 125 137 130 129 137 152 120 186 137 142 136 140 122 159 135 125 132 144 150 151 144 150 160 148 148 156 136 151 140 112 143 122 131 141 147 141 138 141 156 131 139 151 142 135 129 146 128 145 143 132 145 146 150 131 138 138 145 138 150 132 138 141 143 143 121 148 134 158 131 179 132 130 157 144 142 140 154 130 146 170 155 124 131 142 149 145 143 129 160 133 155 134 139 152 125 130 152 148 127 152 146 160 141 159 104 151 139 157 129 151 132 129 137 145 161 151 154 158 138 138 139 134 140 149 153 141 131 138 152 147 138 123 152 144 156 162 154 155 135 132 148 152 135 130 149 141 163 136 139 132 130 139 146 148 157 159 139 120 140 155 168 155 130 162 151 150 139 127 162 157 131 145 149 144 164 143 152 143 149 124 140 127 133 130 149 146 129 155 161 145 150 130 145 141 158 132 148 127 141 136 138 126 145 125 169 148 138 138 135 142 159 141 145 153 136 135 145 125 153 153 135 135 146 148 132 146 137 149 149 144 139 149 148 147 140 133 150 133 143 150 118 160 132 131 145 135 120 133 133 127 139 145 156 163 124 137 142 174 154 118 147 137 149 127 162 132 141 120 164 146 137 130 154 136 136 153 139 127 123 139 125 140 147 132 148 152 120 139 156 132 138 129 150 137 139 142 140 126 150 146 135 135 149 119 122 141 150 124 151 137 126 144 144 175 148 131 127 137 149 139 145 151 128 155 116 125 116 122 130 135 126 144 155 134 146 126 129 130 133 143 156 132 150 150 156 149 124 124 136 134 152 145 148 133 146 131 137 130 152 152 114 116</intensities>
			</dataPoints>
		</scan>
	</xrdMeasurement>
</xrdMeasurements>
