<?xml version="1.0" encoding="UTF-8"?>
<xrdMeasurements xmlns="http://www.xrdml.com/XRDMeasurement/1.7" xmlns:xsi="http://www.w3.org/2001/XMLSchema-instance" xsi:schemaLocation="http://www.xrdml.com/XRDMeasurement/1.7 http://www.xrdml.com/XRDMeasurement/1.7/XRDMeasurement.xsd" status="Completed">
	<comment>
		<entry>Configuration=Conf. Reflection-transmission spinner, Owner=User-1, Creation date=2/28/2018 8:43:02 AM</entry>
		<entry>Goniometer=Theta/Theta; Minimum step size 2Theta:0.0001; Minimum step size Omega:0.0001</entry>
		<entry>Sample stage=Reflection-transmission spinner; Minimum step size Phi:0.1</entry>
		<entry>Diffractometer system=EMPYREAN</entry>
		<entry>Measurement program=C:\PANalytical\Data Collector\Programs\sample-1.xrdmp, Identifier={BB6687EE-8248-4E06-B0C7-67735DEB5D7E}</entry>
		<entry>Batch program=C:\PANalytical\Data Collector\Programs\P6.xrdmp, Identifier={7BD5230E-A2B7-4B30-ABCA-6DDD4F314F6E}</entry>
	</comment>
	<sample type="To be analyzed">
		<id></id>
		<name></name>
		<preparedBy></preparedBy>
	</sample>
	<xrdMeasurement measurementType="Scan" status="Completed" sampleMode="Reflection">
		<comment>
			<entry>PHD Lower Level = 4.02 (keV), PHD Upper Level = 11.27 (keV)</entry>
		</comment>
		<usedWavelength intended="K-Alpha 1">
			<kAlpha1 unit="Angstrom">1.5405980</kAlpha1>
			<kAlpha2 unit="Angstrom">1.5444260</kAlpha2>
			<kBeta unit="Angstrom">1.3922500</kBeta>
			<ratioKAlpha2KAlpha1>0.5000</ratioKAlpha2KAlpha1>
		</usedWavelength>
		<incidentBeamPath>
			<radius unit="mm">240.00</radius>
			<xRayTube id="1010048" name="Empyrean Cu LFF HR (9430 033 7310x) DK427586">
				<tension unit="kV">40.0</tension>
				<current unit="mA">40.0</current>
				<anodeMaterial>Cu</anodeMaterial>
				<focus type="Line">
					<length unit="mm">12.0</length>
					<width unit="mm">0.4</width>
					<takeOffAngle unit="deg">4.4</takeOffAngle>
				</focus>
			</xRayTube>
			<xRayMirror id="27020009" name="Bragg-Brentano HD" hybrid="false">
				<crystal type="Graded" shape="Flat">BB/HD</crystal>
				<acceptanceAngle unit="deg">0.800</acceptanceAngle>
				<length unit="mm">55.3</length>
			</xRayMirror>
			<sollerSlit id="21010002" name="Soller slits 0.04 rad.">
				<opening unit="rad">0.0400</opening>
			</sollerSlit>
			<mask id="22030009" name="Fixed mask 10 mm">
				<width unit="mm">10.00</width>
			</mask>
			<antiScatterSlit id="22010003" name="Fixed slit 1°" xsi:type="fixedAntiScatterSlitType">
				<height unit="mm">1.52</height>
			</antiScatterSlit>
			<divergenceSlit id="22010005" name="Fixed slit 1/4°" xsi:type="fixedDivergenceSlitType">
				<distanceToSample unit="mm">140.00</distanceToSample>
				<height unit="mm">0.38</height>
			</divergenceSlit>
		</incidentBeamPath>
		<diffractedBeamPath>
			<radius unit="mm">240.00</radius>
			<antiScatterSlit id="22090010" name="AS slit 8.0 mm (PIXcel)" xsi:type="fixedAntiScatterSlitType">
				<height unit="mm">8.00</height>
			</antiScatterSlit>
			<sollerSlit id="21020003" name="Large Soller slits 0.04 rad.">
				<opening unit="rad">0.0400</opening>
			</sollerSlit>
			<detector id="7010019" name="PIXcel1D-Medipix3 detector" xsi:type="rtmsDetectorType">
				<phd unit="%">
					<lowerLevel>25.0</lowerLevel>
					<upperLevel>70.0</upperLevel>
				</phd>
				<mode>Scanning</mode>
				<activeLength unit="deg">3.3482</activeLength>
			</detector>
		</diffractedBeamPath>
		<scan appendNumber="0" mode="Continuous" scanAxis="Gonio" status="Completed">
			<header>
				<startTimeStamp>2025-12-26T13:13:39+08:00</startTimeStamp>
				<endTimeStamp>2025-12-26T13:25:10+08:00</endTimeStamp>
				<author>
					<name>User</name>
				</author>
				<source>
					<applicationSoftware version="5.5a">Data Collector</applicationSoftware>
					<instrumentControlSoftware version="7.9j 20171025">EMPYREAN</instrumentControlSoftware>
					<instrumentID>0000000011214615</instrumentID>
				</source>
			</header>
			<dataPoints>
				<positions axis="2Theta" unit="deg">
					<startPosition>6.00558257</startPosition>
					<endPosition>75.99655438</endPosition>
				</positions>
				<positions axis="Omega" unit="deg">
					<startPosition>3.00279129</startPosition>
					<endPosition>37.99827719</endPosition>
				</positions>
				<positions axis="Phi" unit="deg">
					<commonPosition>0.0</commonPosition>
				</positions>
				<commonCountingTime unit="seconds">13.770</commonCountingTime>
				<intensities unit="counts">488 548 545 563 531 513 495 488 544 492 523 477 493 494 520 505 522 526 520 495 529 499 498 478 513 482 500 487 516 481 526 510 539 549 497 497 499 497 493 498 510 493 468 499 468 500 476 509 531 492 498 505 526 509 516 509 432 487 460 506 521 479 518 490 479 481 500 499 496 492 524 497 478 496 477 480 490 491 480 511 482 509 501 453 504 516 457 464 503 483 486 446 460 477 437 461 463 469 474 460 509 458 483 479 434 495 479 522 480 478 448 468 465 493 478 458 445 447 512 461 469 475 448 471 486 466 449 443 502 494 482 446 493 491 430 472 469 476 450 497 458 470 452 454 467 434 507 465 424 457 482 450 413 458 460 445 539 478 456 474 434 494 458 460 452 464 451 454 439 473 457 488 416 435 420 510 472 458 470 499 431 425 454 441 463 450 470 462 468 443 457 457 498 447 474 441 433 477 457 480 458 438 455 413 453 463 486 506 470 453 472 451 428 445 457 463 457 436 459 446 453 457 451 438 481 452 464 474 449 456 417 467 472 466 425 496 441 425 450 479 417 452 436 425 434 493 467 469 450 484 428 425 409 426 445 406 442 474 463 448 421 444 456 451 441 439 438 488 418 429 427 429 437 382 463 443 378 445 439 435 394 421 411 439 475 414 425 442 447 457 453 448 436 452 411 430 456 436 466 421 428 440 438 420 461 464 449 410 430 425 425 463 475 449 473 453 487 407 437 447 416 423 457 434 490 436 420 411 417 448 433 477 471 414 458 425 464 388 412 445 439 379 401 419 425 414 423 414 446 468 394 451 436 430 473 441 393 411 450 439 414 432 430 443 390 418 420 422 393 426 478 434 455 434 385 416 408 445 416 457 424 455 417 412 421 439 419 433 406 420 415 461 433 447 418 408 413 430 448 381 457 437 436 438 428 409 421 407 385 441 413 403 408 414 437 402 444 438 405 431 419 448 441 438 393 448 435 407 400 405 405 384 411 434 392 412 410 391 422 424 424 417 436 415 387 420 399 374 415 418 446 403 424 408 420 402 397 394 444 425 392 386 415 409 408 404 410 436 410 405 412 405 415 441 433 406 398 431 393 438 403 417 415 414 410 401 391 413 400 432 388 407 368 426 427 425 394 379 372 387 409 420 374 397 408 439 403 395 398 407 397 410 451 394 403 406 438 375 387 381 402 394 415 411 426 379 430 392 410 400 389 397 385 367 389 366 384 400 353 383 383 381 373 428 407 390 399 418 401 382 395 362 383 410 401 418 402 393 380 387 431 381 429 397 410 397 419 392 417 411 402 391 411 424 421 414 420 385 393 385 415 405 409 375 436 392 389 396 359 380 397 443 400 389 389 407 396 375 414 384 405 378 407 366 371 374 384 421 388 413 370 404 405 402 369 368 401 373 416 373 379 402 389 404 396 409 396 390 401 371 432 360 362 416 400 351 404 381 397 373 386 402 405 383 371 378 376 406 384 387 394 382 369 351 383 382 409 349 411 389 388 398 378 387 403 409 367 391 402 366 381 363 404 409 422 384 367 373 382 406 382 411 366 381 359 382 409 366 399 389 379 389 379 390 393 369 377 412 377 365 380 378 360 410 373 388 377 406 380 374 386 361 403 404 399 397 368 405 371 359 346 397 395 338 355 394 356 376 380 398 369 395 390 399 367 386 385 400 402 355 362 415 365 363 383 358 391 352 349 403 390 370 344 359 381 374 363 380 358 371 372 382 381 361 384 391 388 352 362 370 368 400 396 379 374 420 368 410 371 375 366 363 347 403 340 413 389 388 377 374 373 399 377 374 383 396 356 359 395 362 377 390 361 344 359 364 353 385 380 367 351 388 368 384 354 366 382 338 395 383 371 355 342 371 369 354 344 364 386 367 328 375 321 356 374 367 358 346 365 382 388 382 364 341 399 350 372 368 368 362 380 349 350 359 391 368 356 380 391 350 395 346 365 389 362 356 404 359 347 336 384 376 325 349 350 353 390 366 348 375 367 391 367 367 392 340 355 347 342 366 363 379 355 365 376 361 381 374 333 399 377 333 339 358 350 362 346 363 303 324 356 336 325 339 347 367 346 357 377 377 341 388 371 341 350 357 366 353 343 368 358 349 380 360 357 368 339 332 341 362 343 369 334 376 346 370 343 376 380 319 344 341 370 366 343 373 349 367 347 344 333 367 369 340 321 349 385 342 358 334 353 341 367 369 334 354 345 326 346 339 352 369 332 332 358 367 340 328 344 306 347 347 343 339 327 378 334 362 360 353 357 346 351 352 333 344 367 334 345 333 317 365 370 341 340 341 352 373 390 349 346 348 337 370 342 343 366 367 339 352 330 331 310 367 321 342 312 340 330 322 311 325 332 346 360 318 339 316 347 346 343 324 347 336 352 349 309 332 358 360 352 357 340 392 322 347 374 348 337 311 363 331 369 324 370 332 330 331 315 359 341 332 323 361 320 350 329 342 337 336 297 334 345 358 323 362 339 326 318 340 318 324 320 294 345 320 308 337 342 334 294 308 368 338 324 335 312 335 343 324 331 340 341 333 316 339 333 354 314 298 318 307 323 322 335 331 343 335 296 332 306 311 332 308 334 329 326 353 349 314 313 327 317 352 302 312 291 317 309 368 302 319 343 321 329 339 342 330 294 355 322 328 322 307 317 333 316 320 335 350 303 323 326 340 348 350 316 302 334 296 323 328 315 306 315 323 344 331 308 345 297 349 316 297 339 322 360 304 335 296 317 309 344 315 340 327 300 358 345 323 313 344 325 327 316 340 310 307 327 340 288 335 312 325 304 332 319 340 308 358 328 328 334 306 361 319 332 322 372 302 305 317 309 318 292 336 315 328 349 284 323 314 315 328 321 302 336 325 334 311 313 371 316 316 324 359 331 300 331 348 303 311 319 328 323 305 314 361 304 287 298 308 321 292 313 331 309 315 324 325 345 315 305 300 342 310 347 298 288 304 310 307 348 324 358 342 321 337 334 320 303 315 305 316 329 295 350 355 332 287 341 326 333 311 315 302 318 281 297 300 341 324 310 337 319 299 277 344 308 308 330 309 282 298 316 318 306 321 302 321 315 270 283 375 319 318 291 285 305 266 299 315 314 296 329 309 329 322 332 276 309 304 308 305 330 295 293 335 311 298 287 317 298 285 355 313 322 307 282 310 333 327 311 284 301 327 287 333 282 317 322 307 316 304 329 325 310 322 318 320 319 328 335 319 312 295 321 316 276 295 284 308 292 302 286 340 291 303 299 347 308 302 281 296 338 310 297 286 299 300 295 293 303 303 305 305 276 288 292 295 307 309 299 288 317 334 286 305 298 335 303 287 285 324 291 289 306 323 314 325 316 309 304 318 305 321 263 331 310 285 277 321 313 306 288 328 302 282 297 312 281 329 279 293 315 325 311 316 273 304 312 276 312 324 314 319 333 322 291 292 291 338 323 341 292 301 341 328 291 321 331 303 314 309 339 311 309 295 316 324 307 295 307 323 324 301 281 308 287 296 301 303 293 307 313 278 317 297 277 307 287 301 326 306 264 328 321 307 294 295 294 287 302 289 322 291 282 288 282 302 311 303 293 304 306 318 302 298 315 298 313 313 316 285 311 318 284 309 296 275 312 274 311 297 284 323 312 314 299 322 295 323 308 292 287 300 304 334 283 302 280 331 348 332 281 309 301 309 325 317 274 329 284 273 282 317 306 336 318 304 295 311 292 331 276 284 281 286 323 301 345 305 317 288 289 307 306 297 332 306 270 280 286 310 298 277 304 299 309 311 302 278 281 338 307 313 325 311 310 302 284 310 270 304 274 320 261 288 307 315 309 309 313 312 297 300 293 272 288 294 274 311 326 305 286 327 292 293 279 314 287 314 268 320 321 288 277 300 331 313 307 324 332 324 281 313 286 305 305 328 324 262 298 282 269 296 325 344 310 288 282 289 309 306 297 281 276 321 295 305 306 304 294 302 315 289 310 325 288 300 283 330 278 328 302 293 295 299 313 291 292 325 299 304 327 294 290 329 283 322 325 296 316 318 306 309 290 295 307 290 292 329 310 277 297 310 306 296 306 299 291 262 314 318 318 313 302 300 324 299 298 329 320 313 272 280 301 315 308 297 330 299 299 269 333 295 307 309 306 305 316 325 298 300 297 324 288 299 328 330 296 342 306 328 331 297 295 323 331 302 313 329 299 275 293 304 309 302 327 321 312 346 303 313 298 318 293 317 349 310 314 282 333 286 305 297 301 308 351 305 306 300 318 301 343 301 339 335 302 349 328 293 290 307 331 290 265 317 311 305 289 284 328 323 316 326 305 307 319 314 332 297 294 312 324 331 334 280 345 288 305 292 342 277 315 336 325 305 297 338 308 309 339 305 286 344 297 319 289 362 334 295 320 327 287 290 307 351 312 318 324 322 299 305 316 339 322 317 343 301 311 325 303 309 335 339 318 313 329 325 336 326 320 298 296 297 314 328 330 324 301 318 320 304 285 307 308 316 312 322 292 314 284 306 303 339 318 296 330 320 341 340 290 328 300 352 302 302 323 346 301 328 355 313 321 320 297 309 352 293 342 338 332 325 347 331 326 333 287 317 319 281 299 340 321 337 306 307 316 299 321 322 315 332 345 324 303 332 315 344 324 322 324 315 328 321 306 327 288 339 313 352 329 314 325 328 330 363 326 297 333 298 300 319 316 309 341 310 310 340 355 338 302 335 342 326 363 331 336 370 348 311 332 311 308 328 322 352 322 318 335 297 310 331 325 321 359 326 308 283 334 341 341 298 308 343 323 331 323 318 329 328 329 324 331 359 308 310 344 329 338 343 332 329 333 350 321 311 323 333 346 331 331 324 307 323 338 324 290 332 335 341 327 319 307 342 298 315 339 327 320 348 325 321 316 334 323 326 300 329 304 305 339 313 335 360 327 330 323 318 340 317 348 310 306 327 289 293 316 310 323 368 344 334 317 340 320 344 340 289 321 322 378 350 344 370 318 300 331 341 307 335 313 318 313 354 361 312 344 336 338 333 354 301 332 341 341 329 328 336 335 332 339 323 328 326 328 354 335 303 318 337 329 312 351 349 331 350 331 336 325 328 316 318 329 344 357 322 351 332 351 299 324 307 299 333 338 295 322 323 333 331 319 360 309 352 314 333 340 310 320 334 348 329 332 345 328 307 321 340 342 358 311 301 320 292 327 284 325 291 329 327 311 366 284 356 300 340 339 310 349 343 298 343 319 366 336 360 302 349 324 304 348 332 281 320 310 352 333 297 337 326 340 307 310 343 363 314 339 343 296 330 329 310 308 306 341 313 321 327 350 319 342 334 309 302 320 331 341 335 354 342 341 317 324 347 296 342 304 320 333 349 347 320 290 347 300 338 298 305 368 302 332 330 331 320 332 343 344 314 294 344 341 353 316 336 330 338 325 322 315 347 303 304 304 312 351 293 316 317 330 334 322 327 328 321 314 381 348 312 352 327 295 305 309 317 317 342 331 323 309 326 312 301 315 314 337 339 326 290 293 363 319 312 322 339 333 303 311 337 332 331 342 323 315 302 345 314 294 329 300 335 315 338 337 319 334 334 311 299 340 302 341 321 305 316 332 310 314 319 331 359 312 330 322 313 316 351 325 334 301 340 346 318 326 325 303 353 284 315 327 326 291 321 339 345 320 333 329 343 348 361 341 311 345 298 333 313 320 327 355 323 312 336 315 326 345 323 326 327 310 305 322 304 337 302 333 317 332 353 319 332 342 289 327 321 311 336 326 355 329 321 328 339 365 297 357 330 356 309 314 320 334 326 304 332 358 350 332 290 362 287 348 332 310 340 336 346 347 324 307 328 291 312 316 337 324 317 315 320 318 305 354 301 329 329 356 340 345 306 326 302 343 316 334 333 344 330 315 322 309 330 322 368 304 316 342 316 347 322 317 287 322 327 308 299 299 334 331 318 296 281 330 317 331 279 366 342 330 300 336 351 322 333 326 291 316 280 323 306 307 313 324 307 313 313 326 321 303 306 325 335 329 290 321 347 339 341 328 321 308 311 318 340 288 314 290 331 338 305 340 318 326 333 314 308 294 316 314 327 343 351 277 305 349 326 298 320 323 298 352 346 319 297 314 324 331 317 324 320 300 288 302 315 306 294 317 274 326 313 312 313 343 325 293 312 335 331 310 327 323 306 333 322 302 333 337 333 318 314 327 322 301 328 309 321 327 303 345 299 320 299 298 321 321 311 317 303 287 299 343 328 317 321 339 305 338 282 330 324 302 309 323 320 386 289 318 323 298 307 300 306 364 331 321 334 320 314 313 284 300 302 304 281 331 316 283 294 326 385 299 353 326 315 290 321 275 304 332 353 312 333 323 316 298 330 305 322 290 314 310 312 345 309 319 322 315 298 335 325 311 301 314 304 360 298 318 321 312 327 332 310 301 285 310 308 270 289 295 343 317 295 322 317 319 320 271 326 314 350 321 327 320 318 291 300 304 284 305 333 321 279 275 310 302 294 297 316 304 315 302 315 323 322 336 336 288 317 334 328 323 323 292 325 311 335 321 274 289 322 282 319 317 298 314 300 291 307 324 303 305 290 326 288 320 282 329 320 320 320 299 321 318 338 320 325 322 307 296 325 303 311 328 285 267 321 300 323 327 314 307 298 317 286 265 319 338 311 340 299 302 330 322 313 311 331 324 311 316 304 334 315 311 296 333 308 321 286 329 307 308 342 307 339 327 289 312 318 292 323 309 299 342 310 305 329 307 321 304 319 270 333 296 287 283 326 298 317 284 331 302 296 314 343 315 304 329 309 316 294 309 318 303 324 306 320 322 293 272 311 309 312 302 321 301 317 300 317 312 318 300 322 272 302 352 309 322 299 306 302 260 314 337 319 325 292 306 296 292 316 298 291 295 317 291 281 302 311 300 304 321 307 273 292 321 302 313 312 311 301 291 331 315 342 291 317 310 301 323 310 337 292 285 260 325 317 262 323 302 316 289 327 312 297 286 278 301 298 298 309 313 289 305 293 307 283 317 303 307 317 310 293 305 293 328 344 324 338 313 308 320 335 306 316 322 331 291 315 325 308 323 309 320 297 310 296 308 321 326 361 305 311 302 297 319 333 310 311 278 293 294 320 337 287 315 294 296 320 290 288 305 278 271 290 288 301 334 266 290 312 261 348 330 301 306 263 311 291 324 302 291 306 308 307 277 262 293 301 296 326 314 327 296 296 327 318 342 345 323 319 294 308 293 330 326 284 316 297 293 328 305 310 292 321 306 333 306 304 285 322 304 304 312 280 299 302 288 297 310 303 319 319 278 312 305 309 248 304 320 313 316 294 291 316 296 291 285 297 307 323 318 296 271 320 309 332 307 280 286 292 308 325 310 312 292 274 306 306 309 261 302 302 300 332 303 286 262 291 276 331 301 303 322 294 315 256 301 288 292 295 302 298 309 340 276 257 312 319 275 325 294 273 307 299 324 296 290 323 301 314 323 302 299 320 320 292 318 315 296 293 286 346 303 311 292 292 302 289 275 294 310 285 284 316 301 317 317 267 296 318 299 276 287 313 287 321 294 285 277 292 269 312 306 324 294 302 312 279 322 307 341 300 310 321 332 315 287 310 309 297 284 330 308 289 308 301 292 320 317 296 299 306 322 294 299 331 299 270 283 304 297 294 288 317 319 287 309 332 297 286 276 321 307 320 291 263 277 302 326 277 279 266 286 304 318 286 323 294 307 302 308 323 281 307 292 291 302 322 311 323 285 278 314 304 314 267 302 310 297 297 312 324 318 310 345 302 288 300 311 311 316 277 304 290 280 272 298 260 288 326 299 296 283 260 283 314 323 306 291 302 292 321 295 284 268 299 296 298 305 310 300 281 285 308 294 291 294 267 271 295 319 303 283 288 306 308 318 309 319 309 322 289 300 285 276 309 323 326 304 280 310 268 309 314 311 300 276 305 310 318 290 323 310 278 275 287 292 286 303 287 280 324 298 288 247 290 287 282 323 285 275 286 272 290 264 320 269 328 319 339 297 288 318 267 300 257 311 326 321 296 303 301 324 311 284 314 304 282 310 279 282 282 288 320 293 280 311 284 327 301 284 302 324 313 306 301 323 302 323 333 319 294 315 289 277 302 310 293 314 312 294 301 309 304 310 321 311 279 305 310 299 311 264 307 310 283 301 303 303 277 334 299 324 328 304 324 298 344 278 332 303 283 325 318 308 293 311 289 299 301 318 326 299 310 306 345 268 295 294 323 268 312 274 313 308 296 294 309 310 296 283 301 306 292 303 320 271 309 286 291 349 295 293 295 329 292 306 300 325 322 299 305 315 310 309 345 334 323 295 297 292 347 305 293 300 309 284 292 313 291 321 298 284 271 287 277 331 271 277 283 296 303 300 293 286 303 330 338 317 313 307 276 289 309 283 311 261 309 313 298 327 319 289 307 288 294 302 275 313 298 306 325 311 306 306 275 294 304 301 307 288 343 294 340 308 311 273 305 317 303 277 297 316 286 321 309 292 304 301 313 315 268 304 297 297 321 290 285 316 321 302 278 276 297 310 300 316 268 306 295 289 299 306 300 269 279 283 292 304 296 318 317 292 309 316 268 289 314 324 308 307 294 302 309 296 288 312 296 299 264 303 285 309 296 284 311 303 316 288 270 292 326 300 290 305 317 312 307 318 307 266 287 307 300 288 304 310 284 296 325 302 288 318 311 292 329 294 306 304 313 296 298 279 298 324 345 323 328 292 321 326 327 335 318 280 334 288 295 285 291 326 300 331 315 323 301 352 288 335 340 317 280 382 353 301 309 295 267 309 281 289 294 313 295 312 337 290 318 320 303 300 299 285 324 288 306 330 302 297 300 324 292 311 328 299 326 318 309 286 292 302 299 311 310 289 293 303 331 315 307 295 284 312 322 324 320 327 298 293 296 298 326 294 308 338 335 317 301 323 314 316 309 295 325 319 315 330 330 308 305 351 314 305 301 350 270 295 277 312 306 307 295 287 336 348 321 309 304 313 313 311 300 313 318 339 312 297 319 318 335 329 275 296 314 310 321 324 334 321 308 280 310 318 331 275 327 328 318 313 303 303 325 328 318 296 320 305 297 317 329 284 322 288 302 323 298 288 299 311 313 324 290 330 324 338 294 304 309 316 327 318 313 296 318 308 336 327 279 282 272 351 296 317 299 300 322 329 284 294 295 273 314 268 295 280 294 299 309 321 323 298 336 301 296 306 305 323 293 304 323 307 307 313 320 314 302 328 305 294 321 322 317 279 315 290 285 316 311 296 324 316 299 308 286 327 316 313 293 323 312 293 306 312 299 322 263 310 323 308 301 292 310 317 288 305 289 349 322 295 303 284 295 292 303 307 287 294 277 296 322 304 285 288 283 331 329 303 358 338 329 286 283 279 300 283 328 302 303 326 293 289 308 300 324 311 303 299 323 319 265 331 328 312 328 306 295 302 291 300 292 308 269 274 298 304 304 303 297 320 314 311 323 305 311 290 309 310 292 308 323 306 266 291 305 310 308 285 283 319 318 245 294 322 288 297 278 299 296 281 320 318 327 329 279 312 302 325 282 339 275 307 325 309 275 295 305 299 329 269 280 300 323 327 286 280 273 295 315 307 299 332 304 284 270 293 297 308 327 334 281 309 300 285 286 318 286 314 320 290 307 305 333 312 315 298 331 284 264 304 327 323 304 321 309 305 288 285 334 302 287 330 279 321 329 314 295 306 305 339 290 285 285 296 289 315 302 324 295 296 312 261 268 342 288 324 267 296 293 341 296 311 273 289 298 319 317 282 345 310 294 316 257 288 280 291 305 317 301 288 305 305 311 311 315 286 307 315 297 291 303 329 327 301 304 289 308 296 314 285 286 292 319 320 302 278 270 278 307 321 309 302 297 339 323 287 308 288 324 265 247 289 262 332 294 275 308 296 301 297 296 317 296 296 289 292 323 321 307 306 301 315 317 294 298 335 292 313 313 318 285 308 288 299 310 286 338 318 271 333 279 306 285 294 297 308 330 298 285 285 335 276 280 319 301 325 314 316 317 295 308 313 304 312 304 328 316 348 327 363 319 294 310 311 303 343 332 295 329 334 301 300 309 269 280 319 270 333 338 267 312 293 280 302 309 299 342 321 305 295 327 334 301 332 308 326 289 309 309 275 327 288 290 303 332 309 329 310 338 298 335 301 326 303 313 302 297 320 303 351 300 324 294 300 323 290 297 329 319 320 316 320 304 315 307 273 337 298 273 335 341 309 298 325 279 314 299 307 330 312 279 323 317 302 317 314 344 331 339 322 280 310 299 339 271 300 328 289 311 296 312 297 307 318 309 288 310 301 305 294 292 319 275 310 280 293 303 298 283 305 318 354 316 306 357 322 320 308 352 301 303 318 300 322 306 291 306 326 316 315 331 326 307 340 312 306 285 324 315 313 353 320 322 337 322 329 339 307 307 303 333 305 334 344 329 323 331 322 320 323 329 349 321 326 306 318 307 318 350 311 312 333 336 343 348 350 312 331 312 363 318 323 307 287 320 316 316 342 365 295 329 342 340 341 335 351 314 327 377 338 338 320 341 309 329 315 313 325 346 367 324 355 323 306 360 324 336 326 360 313 335 347 353 353 347 339 352 337 337 331 341 334 366 329 346 324 319 334 368 331 337 316 356 339 364 330 353 329 331 344 345 340 360 352 315 318 374 329 362 329 371 301 343 329 297 342 362 323 365 326 347 302 362 304 365 322 340 367 366 329 349 341 312 327 381 325 348 378 364 319 359 324 367 327 333 347 373 333 319 312 330 364 317 299 312 331 400 337 350 335 326 333 378 338 344 354 343 354 349 346 370 366 358 320 388 345 342 351 333 353 332 355 320 284 332 374 381 318 312 343 344 342 347 353 359 381 334 347 336 339 326 321 333 321 300 344 325 369 352 353 318 344 347 323 344 336 341 352 336 352 316 339 352 324 326 344 355 306 319 313 336 323 354 341 338 335 320 304 308 347 333 339 311 318 319 312 322 325 292 334 296 315 327 338 312 303 324 360 360 311 349 297 342 321 342 316 273 356 308 350 346 310 299 300 316 333 329 306 315 327 318 316 290 337 321 264 306 316 339 316 312 294 311 292 306 304 313 324 288 322 286 338 313 300 289 311 300 259 304 280 268 320 302 310 315 309 311 290 272 272 304 306 300 267 260 271 296 289 288 285 286 309 317 313 279 280 283 292 274 297 288 307 275 281 293 298 299 263 289 300 289 305 292 292 299 280 302 273 287 282 265 241 318 284 290 260 297 247 271 258 283 271 297 267 242 292 236 271 287 247 279 238 272 231 236 286 263 262 268 267 277 276 261 273 285 257 275 280 238 266 264 310 238 249 270 279 295 266 288 270 279 274 261 289 293 291 295 272 306 268 288 284 293 243 281 243 259 314 302 300 290 274 270 271 243 249 275 291 300 282 298 295 266 304 260 282 260 282 300 300 269 277 273 279 278 265 278 278 295 282 280 295 270 288 269 300 278 268 271 245 291 287 295 266 316 292 273 295 284 259 265 283 270 250 298 272 293 343 265 315 290 266 266 315 308 288 287 288 291 301 285 293 280 259 282 278 268 261 287 281 244 272 274 299 272 274 320 309 294 321 279 292 295 310 306 257 266 270 284 260 280 285 269 271 275 301 265 275 263 241 264 272 248 285 281 292 247 225 282 280 269 233 277 280 247 271 278 265 304 261 278 241 256 269 258 267 248 265 230 267 246 237 228 243 247 271 265 241 270 275 233 279 249 261 244 272 246 215 244 246 274 265 247 270 264 279 261 229 259 241 228 249 281 261 245 240 245 261 264 250 240 249 240 256 260 250 236 246 221 239 228 247 232 262 232 218 203 269 273 249 219 241 256 266 236 278 238 267 276 267 230 248 226 238 264 246 218 199 260 275 270 208 235 211 223 246 237 272 240 224 276 261 241 222 242 219 209 261 242 225 261 234 241 258 224 232 232 195 249 224 243 231 237 233 272 214 227 210 279 219 217 260 244 226 243 234 237 222 236 218 240 229 227 296 235 232 233 217 243 204 228 212 230 231 230 234 259 241 227 236 236 243 246 243 238 225 182 236 231 238 218 233 214 219 245 250 236 226 218 234 232 217 222 219 250 217 218 226 202 205 238 218 229 221 203 223 211 235 219 206 244 270 235 241 222 217 234 238 207 258 213 228 215 267 220 224 220 235 214 216 231 234 241 226 226 243 215 227 212 243 231 216 232 208 251 206 193 217 216 206 207 235 203 200 214 202 263 233 216 206 258 235 211 245 198 201 207 220 249 239 233 199 270 226 235 239 226 206 236 214 248 198 209 229 221 208 244 209 233 228 204 230 200 224 229 225 216 202 206 206 228 231 182 230 230 232 223 209 224 243 208 206 229 236 221 235 197 232 221 244 221 210 233 257 216 235 230 230 222 248 213 220 222 233 233 232 199 194 211 220 214 227 222 225 229 213 227 221 215 227 215 212 227 189 207 207 198 225 197 217 230 247 204 219 218 242 225 225 200 221 209 229 201 233 211 215 211 227 208 222 235 238 207 212 211 230 214 228 211 218 205 233 213 239 223 216 221 223 237 208 194 210 231 237 233 212 210 223 219 222 218 249 217 215 214 218 225 208 228 229 221 243 224 217 236 228 232 245 230 220 234 203 231 268 211 203 242 229 230 220 214 213 221 222 258 234 239 197 250 213 194 227 242 182 208 215 218 218 235 223 219 211 259 221 224 216 236 232 244 256 206 226 217 213 264 226 229 222 211 249 248 217 258 219 223 235 227 257 259 234 209 228 230 208 240 240 240 249 220 225 239 271 235 245 244 220 228 233 208 213 219 204 243 233 206 219 259 247 221 221 245 246 259 206 225 220 218 242 234 225 242 264 242 200 282 232 276 214 243 258 221 220 237 257 240 228 235 246 240 229 234 217 267 203 233 242 257 260 227 214 230 241 231 237 221 235 232 241 205 210 202 239 227 225 227 266 234 247 201 236 237 247 243 262 238 243 223 250 210 231 220 249 234 246 257 202 212 243 220 220 225 217 262 233 234 239 229 215 224 247 258 231 222 238 268 257 225 207 263 226 238 234 257 267 249 241 234 231 270 241 215 248 226 261 245 243 221 235 250 291 247 268 240 243 268 269 258 244 243 244 274 258 247 271 247 267 275 279 257 241 262 237 254 288 243 275 266 258 257 275 264 280 276 277 289 286 267 268 276 280 274 304 300 285 289 311 299 266 288 350 326 290 310 291 291 310 315 308 324 295 285 285 264 313 318 331 284 320 293 320 272 287 301 273 286 315 279 288 259 294 284 284 289 297 286 266 283 268 288 301 313 282 286 304 293 273 281 269 282 325 239 307 246 293 299 301 314 304 260 292 291 266 300 266 307 284 276 291 277 276 284 298 309 306 287 287 274 312 287 290 314 297 270 290 295 305 273 295 302 279 320 331 298 297 299 316 325 324 301 279 277 280 312 332 298 305 319 289 313 319 282 317 318 331 299 317 347 335 307 304 329 306 335 323 312 299 340 318 316 299 321 329 321 307 315 325 293 311 349 341 315 288 322 315 293 350 335 304 319 325 367 318 349 305 336 353 356 315 311 317 354 303 375 357 324 338 338 305 366 335 337 337 336 350 339 391 367 332 341 368 339 329 338 334 364 361 324 353 337 335 355 328 337 325 342 374 350 340 366 318 352 373 318 357 339 349 366 348 331 360 334 327 366 346 354 296 353 312 345 348 344 359 350 336 349 360 336 370 341 329 350 333 314 347 327 319 306 320 333 356 338 313 326 308 358 341 378 330 333 345 318 328 291 330 358 352 320 378 328 355 324 311 334 304 318 328 310 294 321 339 320 335 327 330 331 314 354 289 326 315 309 318 316 317 309 292 316 285 292 285 322 344 301 298 314 287 263 309 296 292 290 336 290 297 313 329 348 290 297 288 282 259 287 305 287 269 256 307 295 273 270 274 279 280 293 276 278 270 307 272 277 265 236 307 265 271 265 279 279 278 284 278 294 271 241 305 282 280 239 265 269 260 288 266 264 243 242 269 273 262 236 256 242 266 275 260 262 262 250 217 250 230 284 235 236 223 256 289 218 208 246 239 265 246 212 217 274 238 244 245 242 259 239 231 250 243 238 219 238 257 230 216 234 241 223 257 225 202 228 226 222 239 227 250 257 235 231 211 204 219 234 211 214 216 227 214 182 235 240 215 235 222 215 217 216 219 235 222 231 189 209 257 219 219 202 226 203 213 217 205 237 193 241 228 229 220 218 272 201 238 201 208 219 233 205 191 236 189 230 186 218 225 214 220 239 209 209 182 207 230 187 222 192 213 206 204 224 204 189 218 210 205 187 221 204 168 216 185 211 222 196 195 213 195 225 200 194 205 189 192 206 187 183 244 211 154 194 191 195 189 206 212 197 216 189 205 193 196 178 193 184 235 204 180 209 204 206 203 195 180 195 200 203 189 224 185 197 192 185 181 192 190 199 188 209 202 188 198 209 192 192 193 185 199 195 196 196 184 177 184 188 217 193 201 201 205 187 184 184 192 184 219 222 174 206 203 212 224 188 191 197 192 179 191 186 189 182 185 197 216 169 178 191 183 199 204 171 208 176 215 196 188 182 193 180 183 197 159 200 222 189 177 197 196 186 185 202 179 175 196 203 185 168 171 195 163 199 188 187 181 184 185 193 177 195 177 200 175 204 194 196 150 197 215 191 160 197 190 164 178 169 192 187 191 170 173 161 181 181 180 176 176 167 176 173 174 182 217 180 188 180 198 209 180 196 197 184 186 166 171 180 157 190 200 181 179 194 164 195 196 179 203 181 181 182 181 183 182 176 200 175 201 183 178 173 163 171 161 181 167 198 187 185 181 166 188 204 172 205 189 183 197 184 193 163 205 179 167 175 142 174 192 171 203 181 180 165 179 150 169 170 185 183 177 157 188 173 182 186 179 151 188 169 161 164 184 193 166 189 157 155 172 174 181 183 163 184 166 192 170 174 169 177 186 160 192 184 190 189 189 178 193 194 164 192 203 173 177 180 198 192 183 168 156 165 178 158 168 168 190 199 187 191 183 170 194 173 169 186 178 169 159 167 162 186 179 156 169 192 181 178 180 170 171 186 175 173 181 166 144 197 175 173 161 159 175 174 195 184 159 153 174 179 160 175 168 176 173 175 156 165 166 152 150 152 187 169 174 195 158 174 164 172 169 149 183 175 189 170 163 208 170 178 180 179 170 167 153 189 202 169 180 164 172 175 185 146 160 181 187 169 176 172 163 171 173 177 172 152 165 166 174 179 169 176 172 176 179 181 159 173 200 169 182 151 174 181 163 192 188 188 174 173 183 175 157 190 169 163 175 159 171 163 198 190 186 172 186 177 179 176 158 177 183 169 156 187 164 146 199 171 157 177 162 170 164 164 171 135 178 168 175 180 180 169 158 167 183 184 174 161 180 168 179 171 169 153 184 164 150 158 160 176 169 164 167 152 150 186 190 181 172 156 178 183 172 178 168 153 155 142 163 162 167 198 145 189 169 182 173 162 173 185 191 190 162 196 173 172 187 159 197 177 159 158 180 198 202 184 166 168 141 193 159 156 149 161 157 164 191 149 193 193 178 157 171 173 177 162 147 179 158 164 178 161 180 154 180 167 148 189 175 192 159 182 154 149 169 166 185 186 153 181 178 175 194 175 173 149 156 182 171 154 150 171 185 178 180 170 173 169 169 169 154 158 173 144 182 164 186 177 173 185 176 188 178 184 167 178 171 163 163 166 175 187 181 163 159 172 177 184 193 182 167 180 165 139 170 181 160 176 186 180 175 170 197 151 171 189 181 149 175 184 158 179 170 169 153 175 163 174 164 161 162 180 170 189 183 178 166 166 190 164 150 180 168 173 171 171 165 179 165 200 164 167 160 174 170 170 144 154 169 184 162 164 164 199 156 173 163 184 191 173 178 181 185 162 175 160 157 171 173 163 181 171 163 172 183 177 172 174 179 164 153 188 174 170 169 178 186 193 173 153 178 205 202 158 178 184 187 180 184 173 164 155 189 181 176 181 177 176 188 170 198 159 163 161 138 177 155 177 164 172 161 171 176 173 192 177 156 176 183 158 174 157 179 174 174 184 182 177 174 205 171 159 190 144 185 169 151 188 171 197 164 159 198 143 182 198 161 176 174 193 171 192 175 181 168 182 180 159 178 149 157 167 174 158 171 184 165 167 148 182 167 169 199 169 161 177 187 173 182 171 170 168 186 157 201 166 173 178 172 171 166 188 185 193 194 163 178 159 191 162 172 176 164 161 172 187 173 184 176 159 184 164 196 185 183 150 162 175 185 168 169 185 182 173 163 179 188 169 176 183 182 155 185 170 179 163 182 173 164 189 191 179 180 153 171 189 162 164 160 141 172 175 182 159 169 174 163 185 163 189 185 171 176 161 182 163 167 171 171 186 156 159 155 180 169 174 172 175 202 201 171 173 174 177 188 170 153 202 163 183 166 152 181 162 167 200 167 174 153 160 178 172 159 159 166 175 179 175 166 187 156 188 204 172 199 191 167 169 185 176 183 196 160 170 157 169 157 156 163 174 173 173 182 178 152 161 164 164 171 190 180 199 183 187 197 162 167 170 193 176 197 182 174 160 168 164 158 197 171 181 178 147 160 176 151 169 165 165 172 186 168 168 181 163 162 160 184 187 179 156 186 171 172 160 147 149 189 194 184 164 178 166 161 161 170 181 166 194 166 177 165 191 163 165 174 164 178 197 181 160 185 187 169 196 193 175 164 156 159 163 140 169 165 182 177 184 152 183 170 186 192 169 183 192 171 192 194 174 154 203 172 157 169 163 156 160 145 173 178 176 178 168 186 158 177 176 167 184 166 158 193 170 164 182 193 180 163 162 164 180 193 164 188 164 171 179 185 196 195 171 170 171 182 159 155 178 192 151 164 193 141 201 167 195 187 163 162 181 181 178 183 168 177 158 188 165 205 180 155 208 177 157 164 149 147 167 174 197 174 191 185 188 191 171 172 167 190 189 153 136 192 166 186 175 198 183 190 181 177 171 206 173 162 164 159 158 178 179 161 184 169 178 179 199 196 170 165 163 175 177 178 176 177 182 162 191 154 176 199 186 152 198 181 160 162 182 181 157 189 194 192 177 153 182 167 154 166 175 200 193 173 163 191 184 198 180 189 210 168 179 185 203 176 172 191 196 176 163 182 167 171 180 191 185 158 186 166 202 161 172 185 182 182 189 178 176 170 182 183 185 169 173 171 186 198 156 197 170 170 175 182 183 197 184 176 217 180 188 193 163 174 176 159 203 179 165 176 164 192 168 178 170 158 199 181 219 188 176 172 186 186 184 226 177 180 183 168 181 176 175 211 174 185 181 190 183 193 170 198 205 160 185 187 175 197 202 172 175 190 169 194 187 180 195 169 183 173 197 177 202 185 194 199 177 166 202 192 187 168 176 191 181 181 183 205 198 176 189 179 157 185 190 181 162 201 183 221 170 183 198 174 174 209 182 181 190 183 180 195 222 178 188 188 187 165 172 158 209 157 197 195 174 186 178 202 195 206 186 179 195 170 178 177 194 192 191 182 161 168 185 216 198 189 178 183 164 186 188 170 190 187 193 193 189 179 177 196 210 201 221 197 183 189 213 189 194 197 203 220 190 191 181 196 200 161 182 182 202 169 174 189 161 197 184 170 188 212 191 161 180 178 190 175 175 188 193 200 169 179 194 199 203 224 187 170 208 179 169 198 189 183 186 216 158 209 181 185 204 198 192 183 190 181 200 205 212 202 194 197 192 191 194 168 185 167 217 194 195 201 207 185 196 180 187 187 175 180 187 169 201 161 183 187 174 178 190 207 178 209 198 203 182 198 195 201 181 190 226 190 194 204 180 191 170 198 194 173 174 196 163 209 164 221 196 188 203 192 154 172 190 185 182 189 182 202 147 210 163 208 170 202 175 164 172 214 181 192 180 209 188 187 195 198 199 198 185 171 184 206 199 193 164 210 199 166 168 196 182 173 198 199 180 180 198 210 183 215 196 179 192 210 196 186 217 185 213 188 176 165 195 226 198 188 190 184 190 178 184 196 196 183 184 208 208 177 184 218 218 203 189 203 178 159 203 226 197 189 183 192 216 166 204 195 191 190 188 201 208 206 200 184 197 190 203 185 203 198 174 200 181 224 202 208 223 198 181 194 193 186 196 204 182 205 201 182 182 201 211 199 215 174 184 185 214 181 210 175 193 203 171 196 197 187 194 189 226 215 206 201 208 181 190 202 164 185 197 205 195 195 190 212 189 220 214 202 207 185 197 198 197 183 184 219 206 206 185 213 222 214 212 188 187 206 206 190 173 215 201 211 186 204 197 210 207 213 205 229 204 216 233 185 209 206 205 161 212 194 210 220 244 191 178 199 181 218 204 213 187 199 209 184 212 219 198 192 222 193 182 204 207 200 219 181 200 195 223 212 220 203 206 206 203 203 197 210 189 214 231 212 204 187 224 207 204 217 198 198 202 191 210 209 181 190 221 241 191 204 203 196 176 203 259 216 196 209 208 230 193 178 192 221 204 197 210 201 231 191 227 191 223 226 234 215 201 235 212 169 203 231 215 224 196 195 208 198 208 214 201 212 222 217 209 222 207 194 223 191 217 225 224 187 216 211 198 202 218 216 235 216 199 227 210 244 196 218 207 225 213 227 230 229 203 192 194 203 207 190 201 246 182 227 199 195 211 225 232 222 212 231 232 199 199 235 210 211 209 187 241 226 209 238 189 260 198 232 208 198 204 205 223 227 236 194 235 236 207 219 240 210 214 246 196 230 202 225 219 210 202 202 231 217 213 226 236 220 240 233 215 237 209 217 183 216 215 236 217 203 204 220 235 219 236 213 215 234 204 209 222 220 244 218 217 228 232 215 230 227 204 207 217 210 222 240 220 234 225 224 212 216 205 219 222 216 241 219 234 235 219 197 227 199 226 214 219 230 210 187 231 229 229 196 196 226 193 250 264 212 203 219 225 200 208 228 213 203 210 247 214 207 227 235 211 210 215 215 205 227 204 219 208 233 225 172 218 197 216 205 231 216 224 209 204 196 234 230 219 195 204 218 223 205 216 229 197 231 219 209 210 176 210 224 204 221 204 209 242 204 203 194 209 210 221 206 185 196 223 214 211 228 216 213 205 222 226 225 188 225 207 211 231 203 216 210 202 187 218 207 206 192 224 205 212 216 211 219 203 188 221 210 197 217 226 197 182 219 191 209 203 218 204 223 202 234 229 176 208 202 217 218 218 208 210 215 242 196 203 215 202 195 190 215 214 200 213 212 217 198 188 208 189 237 206 214 174 209 201 198 194 211 209 191 216 197 213 183 201 200 187 211 180 210 196 192 215 229 187 191 221 183 206 229 183 215 200 172 212 175 181 204 198 224 193 195 193 191 211 202 189 198 204 204 172 232 227 198 198 183 181 215 192 228 199 188 215 182 200 195 211 215 236 207 175 200 228 186 171 208 205 192 199 210 240 178 193 172 212 201 206 209 220 217 196 200 222 189 209 182 221 186 219 224 198 203 212 214 211 204 192 212 208 184 216 194 211 196 199 227 206 200 212 249 205 203 173 198 222 186 204 219 205 211 213 206 207 191 214 175 192 194 198 218 191 206 200 213 196 195 215 186 226 189 214 199 203 229 190 215 205 215 206 205 187 190 193 171 198 220 192 210 216 199 217 191 201 186 197 201 219 191 189 197 191 205 205 217 205 200 209 191 191 195 195 204 214 215 217 212 204 195 227 205 195 218 199 238 220 193 196 209 199 220 192 217 191 200 210 183 204 196 231 221 213 192 186 204 219 205 203 209 215 177 196 188 219 215 192 191 226 209 198 219 213 195 232 207 201 224 226 208 207 233 209 176 225 180 215 223 204 210 217 212 199 180 215 220 214 201 200 231 208 188 197 214 190 199 212 178 236 233 187 205 208 222 198 222 235 213 230 224 218 193 217 197 212 222 230 231 213 218 195 180 213 195 212 236 234 194 218 224 231 214 206 193 216 221 198 212 220 214 232 215 217 216 206 213 210 235 208 221 214 218 173 220 197 235 231 195 215 209 200 216 209 242 219 217 226 223 217 220 234 215 212 228 206 217 207 225 226 214 250 227 237 227 211 223 260 226 226 239 244 233 207 236 212 205 222 214 233 210 241 229 205 224 237 227 210 229 216 240 218 234 183 228 226 230 208 260 212 211 225 234 226 269 229 243 257 236 226 227 224 225 256 203 233 234 258 234 219 174 235 218 219 234 236 256 231 212 215 243 224 219 236 240 234 244 215 240 241 274 226 247 236 223 246 208 225 229 243 237 227 233 232 262 242 220 232 220 246 217 241 242 267 235 231 230 247 257 293 246 266 232 235 248 229 265 219 256 259 260 256 212 273 262 242 269 267 260 285 277 279 265 236 262 251 241 256 228 274 246 239 261 285 230 283 242 261 278 237 256 232 249 244 244 271 245 291 266 247 270 247 269 241 261 219 233 222 300 238 281 282 242 249 257 246 274 270 257 239 267 279 259 261 256 328 301 272 281 289 275 269 278 287 304 273 285 291 297 280 261 288 266 309 306 281 270 273 270 306 295 306 293 257 265 283 297 273 285 273 284 320 294 300 293 311 315 319 321 307 307 302 268 328 335 268 308 314 279 308 326 313 316 306 328 324 273 340 308 311 372 330 334 309 324 342 317 329 319 331 325 334 323 342 364 349 327 342 336 329 359 359 324 312 331 313 341 340 338 361 352 345 346 348 366 360 351 329 351 363 365 367 335 350 371 380 368 373 354 360 345 361 360 400 386 371 376 405 407 389 377 391 354 368 389 352 400 377 400 381 378 363 400 352 376 388 350 428 351 364 356 390 424 374 410 383 410 408 392 375 367 394 385 421 382 396 340 368 388 367 372 394 388 388 402 387 405 405 415 421 454 393 399 395 410 381 395 392 376 385 408 375 402 386 376 424 398 382 397 391 382 420 412 358 380 376 384 407 385 401 387 402 353 370 387 374 364 399 376 382 371 380 398 387 385 386 390 402 363 408 347 356 383 363 333 381 355 346 333 337 408 365 380 363 334 371 364 350 360 355 338 317 357 351 329 358 386 345 358 344 365 306 343 333 326 348 356 331 321 331 346 319 340 349 322 310 321 339 346 331 353 323 327 303 328 288 316 341 316 315 334 309 284 327 319 274 312 304 325 337 314 298 286 296 300 298 281 312 292 316 295 277 258 278 301 288 296 268 283 257 284 281 280 265 283 269 286 248 275 246 267 257 264 265 256 290 275 294 286 278 290 225 283 277 274 258 250 257 234 245 258 260 220 263 239 281 224 263 263 265 263 240 238 258 296 236 270 230 224 241 291 249 244 221 209 230 224 221 235 260 262 235 203 239 224 224 202 219 240 248 230 197 225 243 216 213 242 241 236 227 225 234 238 224 203 202 200 242 221 179 205 210 211 212 227 218 213 217 235 195 211 201 229 204 216 212 196 214 216 201 227 217 195 209 221 235 220 195 233 204 211 192 204 222 202 218 187 189 209 207 207 192 209 214 222 194 214 181 199 214 189 199 186 189 201 219 196 185 186 186 225 180 203 185 180 197 209 184 205 193 193 189 203 207 190 205 190 198 212 210 191 181 191 209 176 226 193 187 177 197 205 201 189 212 196 190 187 213 203 176 199 190 163 197 196 193 182 218 190 204 202 197 162 177 205 188 205 182 195 211 186 166 205 178 171 213 182 179 186 185 173 193 154 183 160 185 202 181 181 181 173 178 190 164 171 194 204 163 174 174 159 168 203 172 162 200 201 193 167 212 207 177 172 196 164 182 202 180 202 201 178 182 191 186 198 190 157 198 184 174 166 179 194 186 165 172 205 189 167 195 175 205 137 162 160 163 175 190 184 167 170 176 172 189 163 169 173 164 166 183 170 162 182 187 191 182 175 179 195 196 165 169 180 205 170 186 153 196 206 195 203 154 166 166 180 164 189 192 158 160 185 184 177 169 193 183 162 193 156 184 182 173 179 180 164 163 186 163 174 176 194 167 170 160 160 160 173 173 163 166 155 167 160 181 146 156 201 189 188 198 168 202 163 172 152 185 171 180 158 157 173 192 175 185 192 175 154 180 147 173 172 178 177 179 164 169 147 157 177 166 180 163 170 153 171 160 161 164 184 159 159 152 169 158 166 191 189 170 179 193 157 174 177 148 175 178 173 170 188 177 168 162 183 156 164 153 156 161 159 180 168 156 163 151 155 193 173 156 157 172 178 180 170 153 169 168 173 156 153 192 141 164 172 175 183 173 150 159 150 173 176 158 159 171 149 166 155 165 180 159 146 167 163 179 170 153 162 182 158 152 164 170 175 142 189 168 151 176 181 157 162 161 135 185 197 145 157 155 153 153 154 164 172 186 159 192 169 152 168 151 174 166 163 162 178 171 158 174 148 161 143 176 142 159 160 174 153 163 188 145 163 177 170 180 160 161 159 168 158 175 158 157 168 142 148 171 162 144 168 156 182 178 153 160 142 160 173 127 161 146 180 142 155 136 159 152 157 161 174 127 151 149 177 166 141 168 149 175 156 164 171 176 146 144 167 146 151 147 152 163 152 153 169 159 152 149 153 175 174 180 164 149 159 144 151 162 144 153 146 170 172 169 162 152 135 180 149 166 173 149 161 167 168 150 170 150 148 157 173 150 165 131 155 157 167 160 166 166 140 174 161 175 157 146 160 162 151 149 163 143 145 140 147 148 149 141 158 196 155 161 126 144 167 163 152 157 158 160 146 163 165 169 153 162 163 149 139 164 176 159 155 171 148 170 161 168 141 175 152 162 144 165 167 138 171 143 143 150 154 144 173 174 147 153 134 159 169 138 155 166 158 153 145 166 144 161 163 164 160 167 153 154 154 160 155 166 157 150 181 156 153 138 172 142 150 139 145 155 133 162 135 166 176 156 146 151 166 148 159 172 149 149 171 170 154 143 163 170 151 182 178 166 126 168 152 157 153 138 179 154 163 126 156 156 143 149 181 171 151 143 143 149 172 158 159 147 152 173 174 169 152 151 133 141 164 144 146 155 152 161 143 167 160 162 147 163 130 160 143 153 138 141 158 165 149 180 113 160 165 157 155 155 171 138 156 167 156 147 151 142 173 146 164 149 164 157 161 126 156 166 133 144 172 140 154 154 146 156 168 154 141 166 184 151 160 130 137 184 146 141 142 155 147 150 128 151 161 175 169 153 172 153 173 160 160 150 141 171 169 129 160 141 167 150 185 142 156 157 151 173 137 174 148 148 150 168 156 160 144 145 167 153 153 126 154 158 147 148 149 173 176 147 134 137 144 143 144 146 154 137 131 139 144 141 158 153 144 161 162 148 143 141 141 162 145 164 161 150 140 152 156 154 164 169 138 165 161 136 166 147 155 158 140 150 159 159 151 167 154 167 130 140 139 165 138 158 142 149 162 143 157 149 137 158 177 174 164 151 151 157 151 164 153 150 168 138 143 149 143 171 157 143 135 151 141 133 146 159 139 135 122 166 141 143 162 170 145 145 155 172 136 140 165 146 174 147 134 154 142 131 149 156 152 148 155 138 151 154 142 145 136 158 147 142 141 159 158 131 154 148 166 145 144 179 161 138 143 147 173 136 150 163 121 177 165 158 176 163 143 159 143 141 160 140 152 144 145 135 159 128 148 141 163 138 164 152 152 139 141 127 145 145 129 155 142 156 154 165 144 138 149 143 157 153 139 140 145 131 145 163 133 161 173 163 152 134 142 145 149 159 130 164 149 163 112 149 130 147 152 151 137 145 126 145 141 181 138 136 159 152 161 154 174 148 172 164 145 150 147 139 154 154 149 162 146 156 152 147 143 137 144 135 147 145 158 137 137 150 143 152 164 133 137 153 131 151 156 130 153 147 169 150 136 130 139 142 153 142 143 159 132 138 140 141 141 176 166 153 163 139 161 153 142 128 171 140 123 163 147 140 186 161 147 171 171 139 147 157 137 149 146 143 153 133 134 156 146 152 148 150 176 152</intensities>
			</dataPoints>
		</scan>
	</xrdMeasurement>
</xrdMeasurements>
