<?xml version="1.0" encoding="UTF-8"?>
<xrdMeasurements xmlns="http://www.xrdml.com/XRDMeasurement/1.7" xmlns:xsi="http://www.w3.org/2001/XMLSchema-instance" xsi:schemaLocation="http://www.xrdml.com/XRDMeasurement/1.7 http://www.xrdml.com/XRDMeasurement/1.7/XRDMeasurement.xsd" status="Completed">
	<comment>
		<entry>Configuration=Conf. Reflection-transmission spinner, Owner=User-1, Creation date=2/28/2018 8:43:02 AM</entry>
		<entry>Goniometer=Theta/Theta; Minimum step size 2Theta:0.0001; Minimum step size Omega:0.0001</entry>
		<entry>Sample stage=Reflection-transmission spinner; Minimum step size Phi:0.1</entry>
		<entry>Diffractometer system=EMPYREAN</entry>
		<entry>Measurement program=C:\PANalytical\Data Collector\Programs\sample-1.xrdmp, Identifier={BB6687EE-8248-4E06-B0C7-67735DEB5D7E}</entry>
		<entry>Batch program=C:\PANalytical\Data Collector\Programs\P3.xrdmp, Identifier={DA42CAC0-9290-49D3-8E45-EBBC45FD55A0}</entry>
	</comment>
	<sample type="To be analyzed">
		<id></id>
		<name></name>
		<preparedBy></preparedBy>
	</sample>
	<xrdMeasurement measurementType="Scan" status="Completed" sampleMode="Reflection">
		<comment>
			<entry>PHD Lower Level = 4.02 (keV), PHD Upper Level = 11.27 (keV)</entry>
		</comment>
		<usedWavelength intended="K-Alpha 1">
			<kAlpha1 unit="Angstrom">1.5405980</kAlpha1>
			<kAlpha2 unit="Angstrom">1.5444260</kAlpha2>
			<kBeta unit="Angstrom">1.3922500</kBeta>
			<ratioKAlpha2KAlpha1>0.5000</ratioKAlpha2KAlpha1>
		</usedWavelength>
		<incidentBeamPath>
			<radius unit="mm">240.00</radius>
			<xRayTube id="1010048" name="Empyrean Cu LFF HR (9430 033 7310x) DK427586">
				<tension unit="kV">40.0</tension>
				<current unit="mA">40.0</current>
				<anodeMaterial>Cu</anodeMaterial>
				<focus type="Line">
					<length unit="mm">12.0</length>
					<width unit="mm">0.4</width>
					<takeOffAngle unit="deg">4.4</takeOffAngle>
				</focus>
			</xRayTube>
			<xRayMirror id="27020009" name="Bragg-Brentano HD" hybrid="false">
				<crystal type="Graded" shape="Flat">BB/HD</crystal>
				<acceptanceAngle unit="deg">0.800</acceptanceAngle>
				<length unit="mm">55.3</length>
			</xRayMirror>
			<sollerSlit id="21010002" name="Soller slits 0.04 rad.">
				<opening unit="rad">0.0400</opening>
			</sollerSlit>
			<mask id="22030009" name="Fixed mask 10 mm">
				<width unit="mm">10.00</width>
			</mask>
			<antiScatterSlit id="22010003" name="Fixed slit 1°" xsi:type="fixedAntiScatterSlitType">
				<height unit="mm">1.52</height>
			</antiScatterSlit>
			<divergenceSlit id="22010005" name="Fixed slit 1/4°" xsi:type="fixedDivergenceSlitType">
				<distanceToSample unit="mm">140.00</distanceToSample>
				<height unit="mm">0.38</height>
			</divergenceSlit>
		</incidentBeamPath>
		<diffractedBeamPath>
			<radius unit="mm">240.00</radius>
			<antiScatterSlit id="22090010" name="AS slit 8.0 mm (PIXcel)" xsi:type="fixedAntiScatterSlitType">
				<height unit="mm">8.00</height>
			</antiScatterSlit>
			<sollerSlit id="21020003" name="Large Soller slits 0.04 rad.">
				<opening unit="rad">0.0400</opening>
			</sollerSlit>
			<detector id="7010019" name="PIXcel1D-Medipix3 detector" xsi:type="rtmsDetectorType">
				<phd unit="%">
					<lowerLevel>25.0</lowerLevel>
					<upperLevel>70.0</upperLevel>
				</phd>
				<mode>Scanning</mode>
				<activeLength unit="deg">3.3482</activeLength>
			</detector>
		</diffractedBeamPath>
		<scan appendNumber="0" mode="Continuous" scanAxis="Gonio" status="Completed">
			<header>
				<startTimeStamp>2025-12-26T12:45:33+08:00</startTimeStamp>
				<endTimeStamp>2025-12-26T12:57:05+08:00</endTimeStamp>
				<author>
					<name>User</name>
				</author>
				<source>
					<applicationSoftware version="5.5a">Data Collector</applicationSoftware>
					<instrumentControlSoftware version="7.9j 20171025">EMPYREAN</instrumentControlSoftware>
					<instrumentID>0000000011214615</instrumentID>
				</source>
			</header>
			<dataPoints>
				<positions axis="2Theta" unit="deg">
					<startPosition>6.00558257</startPosition>
					<endPosition>75.99655438</endPosition>
				</positions>
				<positions axis="Omega" unit="deg">
					<startPosition>3.00279129</startPosition>
					<endPosition>37.99827719</endPosition>
				</positions>
				<positions axis="Phi" unit="deg">
					<commonPosition>0.0</commonPosition>
				</positions>
				<commonCountingTime unit="seconds">13.770</commonCountingTime>
				<intensities unit="counts">537 557 546 504 541 535 513 488 495 534 478 519 512 540 517 503 550 541 526 525 550 566 515 520 474 508 516 499 493 510 523 547 519 535 518 547 491 550 487 524 462 521 498 522 512 497 484 519 509 480 507 498 465 515 497 497 501 527 497 502 488 488 495 477 492 452 521 470 517 514 521 486 489 505 503 506 503 473 507 489 519 488 550 504 517 514 515 468 530 499 529 471 499 502 476 508 501 504 476 508 479 479 462 500 472 497 470 452 474 515 499 520 518 506 469 477 513 470 502 491 491 507 476 481 472 469 486 473 482 450 425 467 518 459 499 475 510 482 489 510 480 479 495 462 498 500 474 473 481 501 499 514 502 496 488 484 495 477 463 508 502 436 484 493 508 464 492 468 509 434 470 457 490 479 462 467 501 466 475 464 465 492 461 459 497 463 478 516 499 437 439 492 476 447 449 450 468 472 471 438 438 471 472 453 471 457 469 481 455 463 447 477 433 488 496 428 487 432 424 475 459 453 465 464 487 441 484 438 457 457 488 458 433 484 491 435 497 426 449 489 479 463 449 409 463 493 436 448 439 431 459 437 471 441 475 469 489 462 451 453 450 443 460 479 460 427 446 473 433 476 481 457 455 457 433 438 479 443 447 459 442 448 415 459 424 522 437 441 435 435 468 424 467 455 442 406 463 433 444 447 397 424 463 427 439 429 449 467 427 446 414 499 416 468 438 459 425 421 466 437 417 463 424 436 453 429 427 457 438 468 446 403 437 437 446 461 439 433 424 433 413 458 435 428 443 424 462 437 488 437 411 439 479 437 426 450 436 439 461 422 432 449 428 390 440 410 422 431 436 450 405 443 430 395 442 430 503 452 432 412 427 442 457 416 435 401 431 399 452 423 413 402 442 425 432 422 418 443 438 410 446 418 411 407 462 380 432 420 407 439 419 444 433 453 403 430 456 402 445 435 425 397 422 400 411 411 409 454 424 427 399 381 384 425 400 428 406 431 420 429 389 432 412 397 413 432 427 427 409 429 455 404 428 430 441 402 447 438 387 417 396 437 399 382 439 433 429 392 446 452 386 416 408 416 432 434 408 392 387 418 414 416 435 416 414 453 437 389 420 425 426 386 428 402 413 431 415 419 413 400 421 403 380 417 424 421 428 433 407 396 417 396 402 409 409 387 427 414 382 417 416 424 392 387 426 400 407 395 395 397 395 405 405 411 384 389 384 393 410 438 404 417 358 419 407 418 440 423 372 425 430 411 391 367 382 393 404 395 398 383 410 383 419 380 367 416 376 431 407 384 390 403 369 359 379 397 389 416 369 385 414 387 429 405 385 403 382 397 386 391 401 387 374 403 397 373 370 398 366 375 368 379 389 399 385 385 344 383 371 392 428 368 399 343 392 367 390 405 393 423 424 361 387 392 391 396 347 361 421 413 365 411 343 389 391 416 379 393 401 347 361 378 386 375 363 366 383 365 362 411 371 384 396 383 362 410 414 380 405 386 360 378 374 374 420 393 409 360 391 381 344 369 388 392 418 392 360 407 399 367 384 362 397 388 372 370 374 378 379 411 365 400 357 358 403 368 378 345 348 377 316 407 377 380 373 406 361 413 344 332 405 379 405 361 400 367 367 370 371 371 335 356 347 371 357 381 364 378 370 342 369 336 390 373 359 360 372 377 369 390 352 352 352 331 345 326 350 345 354 361 403 372 336 377 365 365 321 413 370 358 358 388 376 393 386 326 366 371 390 366 401 361 369 377 375 349 354 356 372 356 374 358 359 342 353 348 338 345 376 334 312 360 351 365 345 348 350 362 367 382 360 368 380 363 354 364 358 324 388 404 366 349 344 358 355 336 349 351 353 342 343 334 326 347 371 371 394 395 357 382 339 375 320 326 391 323 308 362 340 329 356 342 350 368 384 362 372 376 347 341 379 371 317 348 355 395 317 355 354 381 361 352 335 347 352 353 322 340 339 346 333 333 338 372 321 372 321 337 338 324 316 353 350 329 376 335 325 342 345 346 333 319 366 331 344 367 330 313 348 358 378 347 318 321 335 372 334 313 302 337 336 352 333 345 303 374 340 343 369 379 327 321 338 367 312 309 355 351 322 337 341 358 310 349 312 328 352 292 333 323 324 352 322 328 331 326 377 341 321 312 295 338 336 344 352 354 337 354 333 281 327 352 352 334 312 331 299 354 302 308 360 353 346 305 308 313 315 339 351 318 322 294 326 322 303 350 322 331 347 315 335 328 313 326 320 322 337 321 335 305 332 290 319 326 299 320 328 286 326 302 311 312 327 310 335 318 305 319 348 321 324 308 340 341 310 317 308 285 331 303 332 363 355 352 309 324 323 276 333 330 317 310 315 333 328 303 323 317 310 325 300 320 296 335 321 317 262 310 319 301 310 292 304 337 315 318 314 317 310 325 329 321 321 322 329 313 296 257 339 325 310 331 312 273 326 292 304 304 309 324 279 305 331 297 304 308 299 329 285 300 339 314 330 285 263 295 302 271 296 323 278 320 297 292 302 276 297 331 280 304 314 289 315 300 305 300 314 302 296 284 298 270 278 294 290 324 304 288 318 256 300 301 279 288 288 321 329 294 304 301 283 316 309 281 318 256 256 290 258 287 292 291 304 303 281 305 300 266 256 302 315 299 321 285 320 280 304 315 294 295 259 273 315 307 312 288 328 293 310 297 305 342 320 303 300 281 261 310 276 319 256 314 283 239 308 263 288 306 281 321 280 287 285 261 275 300 280 295 287 295 257 303 296 274 256 275 315 281 290 291 310 291 271 290 273 298 295 298 249 308 256 296 278 293 284 276 286 296 294 287 301 268 279 310 279 316 282 271 236 266 286 273 257 284 267 296 288 306 313 306 297 294 279 268 274 308 338 263 304 289 286 272 285 284 276 261 282 281 256 269 271 267 262 278 290 274 285 266 275 294 267 287 274 237 266 249 265 279 276 299 264 285 311 258 270 300 245 262 271 276 278 283 282 289 280 242 260 290 270 272 271 235 272 285 262 269 245 266 269 257 273 295 277 292 250 324 292 262 237 284 240 292 288 268 214 243 249 284 267 270 275 271 257 270 271 279 267 266 265 263 232 268 266 260 272 278 274 246 243 265 285 269 285 278 287 257 239 262 247 259 295 266 279 243 283 260 281 263 262 270 278 270 270 293 298 242 245 271 262 227 248 282 258 271 273 267 272 231 236 301 228 261 263 271 260 264 263 265 243 237 248 275 291 257 270 237 230 247 246 247 243 213 244 278 263 279 248 248 261 259 257 257 267 239 268 227 236 231 245 243 276 264 276 273 224 246 260 240 264 284 243 222 259 266 267 263 262 268 244 239 263 272 272 279 258 273 272 227 261 247 277 236 265 278 237 285 203 275 264 271 267 247 236 244 261 236 275 283 260 268 238 286 248 245 242 235 228 248 242 268 277 235 223 266 231 264 239 256 259 221 227 256 234 243 243 245 212 260 269 245 235 271 261 259 233 258 276 238 242 239 213 217 264 213 262 266 265 244 205 218 244 235 256 262 243 256 264 277 277 235 230 268 237 234 227 224 242 265 235 277 260 239 222 220 247 256 229 266 282 271 258 246 225 235 240 230 230 246 231 242 246 246 225 230 218 268 242 233 219 272 235 237 247 260 240 223 233 244 232 238 270 244 271 231 233 267 264 245 218 224 208 249 229 224 249 242 258 243 230 259 228 240 235 227 232 218 237 228 237 229 258 242 249 284 249 234 272 217 221 232 241 271 235 245 239 285 227 207 246 241 235 242 241 232 264 227 241 222 228 226 250 244 241 233 244 233 220 237 233 227 235 261 275 232 213 247 256 241 211 235 261 225 235 263 260 204 232 273 246 221 229 209 237 249 256 259 238 212 256 214 213 241 233 244 258 232 271 228 222 268 221 239 223 213 243 248 241 245 226 238 259 259 220 248 210 219 262 201 244 260 235 262 217 246 224 220 266 265 259 256 256 238 243 249 240 244 241 236 224 227 226 250 225 245 258 219 230 243 232 225 266 224 232 281 220 197 256 227 235 231 244 266 203 242 248 259 248 242 213 244 246 250 223 239 225 216 212 230 237 248 224 221 239 223 245 233 242 231 239 208 247 232 246 259 236 229 242 231 213 194 239 251 210 258 223 231 240 216 226 257 221 226 246 221 246 206 238 270 256 235 205 237 279 248 244 245 214 269 224 208 260 261 196 234 246 229 228 217 260 230 222 267 244 239 241 209 250 229 211 229 262 239 280 221 217 234 250 230 245 230 235 258 211 223 239 234 224 256 241 238 256 243 214 233 231 202 240 246 232 227 260 242 227 233 236 277 229 215 209 222 257 239 245 241 246 284 256 237 219 237 261 234 223 242 224 264 236 241 227 278 264 245 235 245 270 233 264 225 271 244 220 264 216 241 226 261 266 221 256 243 242 226 264 219 227 229 233 244 242 264 227 221 264 236 233 237 239 237 220 237 238 213 230 237 246 220 242 235 198 224 243 231 244 238 220 234 242 268 264 229 250 225 243 226 224 250 257 236 223 222 258 232 214 262 259 218 281 238 244 230 219 272 235 238 242 250 240 268 206 257 236 233 215 256 247 223 262 256 258 279 235 242 231 236 225 232 234 239 292 225 222 237 232 226 231 260 290 257 260 236 286 224 259 221 217 257 264 241 240 234 220 249 259 228 239 231 256 216 249 232 234 269 220 221 233 246 266 218 241 269 263 222 223 220 240 241 232 245 263 222 260 261 223 249 235 265 227 219 200 245 269 256 218 224 242 249 232 243 277 214 223 224 263 223 266 208 257 262 219 219 223 215 227 229 265 232 222 237 234 220 230 239 216 237 234 220 244 210 197 233 229 223 231 246 264 243 228 241 237 238 236 223 208 235 224 225 221 241 232 235 248 222 247 212 213 234 220 216 235 244 220 246 227 221 195 210 223 209 242 231 243 216 231 207 228 220 238 229 217 233 235 240 202 204 210 230 223 223 240 233 218 256 239 241 217 229 223 266 221 244 220 216 219 208 209 216 209 215 226 258 211 229 216 238 202 225 246 213 226 235 212 217 204 233 209 228 231 221 218 234 245 205 230 196 232 194 222 221 215 230 230 215 217 207 213 209 256 218 220 210 239 193 220 242 201 227 216 222 200 227 226 227 223 212 210 194 193 220 249 230 234 212 197 210 221 222 201 185 230 240 243 222 236 219 218 198 219 237 204 243 218 210 216 195 225 178 215 242 180 214 236 206 229 189 218 233 229 225 240 201 190 231 205 194 233 242 233 206 198 227 207 206 208 200 221 211 226 208 208 205 220 219 240 238 265 211 212 207 221 201 211 203 182 193 192 189 207 223 219 207 198 218 228 229 220 194 221 228 210 180 231 214 232 199 224 223 218 203 209 241 191 217 211 216 211 212 213 186 227 217 211 218 234 202 215 211 230 183 195 191 189 204 222 191 223 207 182 213 199 228 211 221 207 197 229 200 186 191 225 197 213 223 188 199 239 240 208 221 202 197 180 204 205 202 221 205 216 202 218 171 198 208 168 199 218 213 195 203 213 214 217 212 173 217 210 201 192 211 231 205 206 194 205 194 190 228 185 229 198 221 201 211 182 192 201 192 215 198 212 200 194 218 201 195 194 171 202 187 203 202 211 222 206 222 195 190 208 183 196 210 197 212 228 202 235 218 189 207 217 213 198 197 183 229 213 203 211 188 204 218 219 229 203 208 216 217 197 199 181 201 206 200 223 189 177 245 237 209 185 205 223 201 213 201 216 201 169 203 210 175 186 214 197 184 222 189 202 205 192 192 218 204 194 181 201 189 160 199 231 212 223 204 227 213 229 191 232 199 197 198 216 209 190 200 190 219 170 202 207 218 195 203 200 223 233 194 202 192 208 187 204 192 197 203 214 199 203 206 202 207 190 221 217 208 215 196 180 232 203 199 198 207 200 225 181 206 214 173 230 210 163 183 223 222 220 183 190 191 213 216 190 184 209 200 194 193 211 177 205 201 220 215 187 193 221 190 194 198 192 212 203 204 180 210 207 183 210 201 222 182 181 183 192 168 222 190 187 216 173 204 201 175 188 206 186 217 209 227 205 183 192 200 188 204 185 208 203 205 196 171 187 212 194 225 215 182 190 231 199 199 200 196 200 194 188 194 231 195 239 200 187 190 230 183 181 226 202 202 207 195 182 199 211 198 200 201 204 229 209 208 196 194 205 195 194 193 230 173 232 184 159 203 227 185 192 204 180 211 220 181 238 197 222 193 178 208 188 192 237 197 214 197 216 201 212 175 191 185 204 230 197 184 224 229 203 195 214 204 229 200 199 225 188 187 200 215 216 216 180 213 201 205 186 189 205 195 195 194 195 197 258 182 201 226 231 191 195 195 216 201 210 208 175 208 208 211 201 203 197 213 226 198 172 209 213 201 228 189 216 211 206 231 202 198 201 204 204 220 220 238 205 219 209 192 231 200 218 196 189 189 207 193 203 213 207 221 197 210 197 239 202 213 210 222 181 195 246 222 213 191 211 228 240 244 224 248 227 210 236 223 210 218 221 207 200 238 210 236 235 224 212 215 225 227 220 239 215 245 258 228 250 272 241 224 233 264 242 249 282 267 234 263 284 294 270 296 266 298 311 304 312 336 307 347 293 340 360 343 371 390 401 384 381 397 371 417 450 430 501 450 453 527 475 487 531 526 525 516 494 537 558 576 538 559 580 550 591 596 602 548 587 548 558 544 555 541 563 531 515 509 519 512 451 481 438 419 425 430 412 411 434 442 402 382 348 349 342 310 362 329 351 320 311 290 272 293 257 237 262 279 230 275 295 241 259 245 262 242 236 235 233 223 267 249 232 265 269 232 239 240 262 217 241 259 236 223 188 219 196 212 217 222 224 215 202 228 214 235 240 220 247 225 230 221 228 201 220 218 213 241 189 233 213 207 229 233 233 198 236 188 198 206 206 226 236 180 233 234 202 185 210 212 207 214 207 214 213 200 202 214 226 205 217 225 186 210 219 213 198 206 217 197 227 205 212 212 213 209 202 199 213 238 259 210 210 178 213 214 196 175 211 238 215 225 221 227 198 224 214 193 231 215 230 220 216 232 242 203 238 217 207 196 199 232 207 194 196 218 210 231 211 198 221 187 234 229 175 216 235 223 202 244 210 182 217 213 207 175 213 201 216 203 205 223 198 188 205 205 224 212 214 209 186 201 220 198 200 207 218 219 197 218 231 205 211 203 201 222 215 221 211 194 183 206 195 199 194 198 226 212 199 189 186 205 201 172 229 211 202 216 221 203 188 237 177 190 200 204 212 213 207 202 222 169 188 205 218 200 228 212 198 210 205 173 209 229 194 221 203 208 211 199 183 214 214 230 202 211 196 194 213 196 197 229 208 212 241 215 227 213 213 193 177 210 212 208 212 205 229 212 197 190 195 207 230 212 198 210 227 204 213 181 219 218 201 188 213 205 207 204 213 211 206 208 211 211 165 212 229 208 210 205 194 186 220 199 205 210 190 203 202 231 206 197 198 217 215 190 222 203 209 212 186 195 201 206 206 195 173 208 214 186 222 220 225 212 197 224 195 199 223 225 216 197 210 183 190 187 221 198 208 241 194 230 213 214 203 214 204 235 207 187 246 206 201 194 199 214 212 221 221 233 230 204 227 210 232 193 226 203 225 215 215 233 208 193 179 193 213 208 206 206 189 230 180 221 219 233 223 204 217 215 218 209 204 201 208 203 222 214 196 212 209 217 219 233 222 197 239 206 201 236 183 234 209 224 203 209 195 210 215 207 198 221 256 211 230 238 208 209 206 223 215 206 196 233 224 223 194 221 244 220 230 195 177 199 222 214 204 245 210 191 210 198 224 221 231 212 205 201 206 219 200 218 213 221 232 222 216 199 205 235 190 208 243 235 225 213 212 216 209 196 207 229 237 213 247 179 217 232 216 198 213 224 211 223 191 235 216 210 231 216 215 233 192 214 215 180 229 218 228 224 230 211 233 207 218 224 199 219 213 232 213 222 215 222 245 228 207 216 231 211 231 211 227 209 215 225 227 219 240 242 203 217 211 215 262 229 210 234 222 230 237 233 228 231 220 236 223 190 233 222 204 227 205 200 223 218 215 209 225 216 243 243 207 222 218 251 220 232 223 230 245 205 244 221 204 209 228 204 232 214 231 234 231 239 227 217 220 218 198 225 251 218 228 244 238 265 258 221 211 228 256 231 204 232 242 250 261 228 240 230 199 229 219 233 222 235 248 231 194 225 248 207 206 215 234 237 224 259 230 237 226 235 217 246 256 233 226 248 242 234 229 249 216 224 222 251 259 235 215 243 235 276 209 238 263 222 231 242 220 265 239 230 261 262 213 237 223 232 230 216 221 259 244 215 241 233 229 241 269 267 224 258 217 222 223 212 223 249 242 241 250 268 236 225 201 249 243 216 271 260 270 241 238 257 216 267 234 259 247 213 225 223 259 214 231 275 259 210 264 237 234 238 235 235 275 242 257 229 269 239 276 225 235 266 249 238 246 247 231 264 242 260 278 229 227 223 225 237 227 246 228 274 245 208 259 249 256 278 229 235 237 230 260 237 229 210 203 209 240 244 240 211 257 263 247 262 226 216 241 247 265 242 223 244 283 247 244 250 228 271 216 228 214 229 236 259 264 260 262 235 278 262 283 261 246 242 271 272 269 285 250 219 265 225 269 244 261 247 238 278 286 235 256 228 214 293 276 263 258 277 284 260 263 266 217 277 238 248 247 213 241 275 271 246 238 239 285 235 274 261 271 239 284 231 259 236 241 260 239 265 264 270 229 238 264 278 260 257 264 256 246 264 241 257 259 241 249 258 262 250 246 247 245 247 285 290 278 225 232 245 240 293 275 231 290 246 260 257 295 246 261 228 234 260 239 249 283 241 285 277 249 249 280 230 246 257 275 258 272 297 233 242 268 241 301 262 284 274 246 284 274 273 263 266 268 212 245 277 260 276 259 272 231 265 272 271 244 251 240 265 229 242 265 275 292 266 284 239 269 274 240 259 288 248 260 274 245 296 271 260 244 262 245 262 266 243 245 286 247 247 257 278 269 237 296 264 267 233 247 239 275 257 241 268 257 289 243 264 288 276 280 291 242 277 233 242 231 267 271 277 266 273 240 261 264 244 239 282 261 256 264 285 246 276 267 266 262 285 272 292 248 288 275 265 257 245 276 256 281 264 282 282 227 277 238 277 284 239 262 247 275 237 278 266 260 282 261 281 273 259 270 263 277 277 245 288 287 275 232 256 243 271 251 251 238 271 262 239 249 229 241 274 261 268 261 263 275 258 250 240 266 266 263 293 263 257 291 271 232 237 287 274 251 285 281 277 239 267 287 265 262 220 286 244 267 257 227 274 249 260 214 233 210 271 244 238 228 262 272 245 248 286 246 226 284 232 250 273 277 215 274 250 262 249 263 282 274 243 275 276 234 262 242 288 246 249 276 262 250 248 232 280 280 250 273 239 259 276 233 233 259 235 272 262 241 241 268 303 248 261 274 285 258 262 282 264 266 222 259 241 283 260 260 256 292 277 251 278 282 272 242 259 245 278 239 250 241 273 264 246 276 239 275 258 276 264 226 260 272 238 272 241 292 256 271 280 272 267 275 262 273 257 258 260 268 243 234 291 262 261 242 288 257 276 269 257 256 261 263 280 262 249 263 264 258 267 217 285 265 248 290 276 245 278 269 279 281 264 264 261 279 248 330 292 283 271 260 258 265 247 278 273 264 278 273 288 268 261 267 307 270 259 288 279 283 309 273 278 260 306 277 270 261 267 273 292 277 289 274 299 294 320 285 271 286 272 304 283 266 314 281 282 291 297 306 270 315 272 320 318 336 328 348 318 330 333 299 345 342 344 368 350 331 354 320 354 326 419 415 369 389 398 417 464 410 466 412 433 474 475 480 458 531 484 467 488 478 553 584 535 559 597 595 616 608 608 618 667 642 648 621 658 675 647 678 711 677 679 690 670 664 716 758 762 716 729 688 737 778 722 688 674 721 687 648 683 651 625 636 628 607 603 640 599 613 632 566 549 611 547 544 543 558 517 504 478 510 493 442 459 461 448 410 418 449 404 453 418 403 375 382 373 384 341 379 366 368 370 366 349 305 363 346 339 310 334 303 338 314 283 336 305 330 296 331 295 315 298 276 321 321 306 287 313 322 309 311 302 275 326 311 273 302 288 303 327 281 316 335 312 293 293 300 302 327 282 267 309 305 301 275 333 329 299 297 291 286 301 300 256 326 287 284 287 288 303 283 310 315 329 280 286 326 322 316 302 285 310 291 277 304 310 309 325 281 326 313 321 285 260 328 310 338 296 305 304 301 272 321 297 307 304 302 278 331 290 290 290 306 266 281 307 304 297 318 279 282 335 288 303 322 292 301 290 325 310 301 321 308 301 311 311 318 309 278 295 337 349 287 335 323 258 322 291 335 325 315 302 315 314 366 298 294 313 325 333 283 318 292 342 296 320 329 298 298 343 332 339 309 311 329 287 291 286 353 321 327 301 323 342 312 332 330 370 300 301 345 303 294 317 323 314 324 340 336 342 345 326 314 294 344 306 334 313 353 337 379 314 305 329 356 318 342 318 364 331 329 343 358 340 333 359 325 317 307 317 334 330 317 342 320 357 331 320 325 360 339 329 329 365 362 340 343 288 338 368 322 338 363 327 370 343 324 334 304 349 351 329 360 333 333 347 323 344 378 378 281 353 379 332 314 327 380 331 337 334 347 360 361 349 375 336 368 330 379 364 396 352 343 362 400 354 362 403 348 411 352 389 335 367 375 388 394 374 409 355 390 341 369 380 385 398 408 401 399 409 425 447 437 415 451 465 484 459 479 484 501 464 520 537 533 582 602 558 611 610 610 617 623 647 658 608 635 634 576 617 662 652 602 590 601 620 596 554 575 576 558 535 531 505 501 524 504 448 464 441 485 440 436 426 426 382 426 404 379 396 365 373 364 367 370 351 360 320 385 312 350 326 347 342 315 308 361 311 320 348 336 305 342 350 331 305 309 311 301 314 328 303 296 306 303 303 311 308 288 316 287 310 314 318 299 309 304 293 298 278 300 302 326 307 296 283 294 291 284 286 307 275 268 306 270 290 292 281 285 293 269 295 292 295 283 282 320 299 289 287 262 295 278 287 281 260 298 248 268 270 271 305 271 273 246 249 256 221 277 282 271 231 273 290 278 266 276 243 260 287 246 251 235 270 248 276 237 279 265 243 240 269 263 273 257 257 259 264 242 264 246 247 260 243 312 278 257 250 241 257 241 237 301 256 237 273 243 259 260 265 257 249 233 247 291 258 245 262 294 257 247 241 217 231 256 245 238 263 250 283 278 311 273 257 230 273 259 265 269 267 233 222 271 256 225 248 260 269 264 241 242 260 270 271 269 234 230 267 247 243 281 288 279 225 285 240 242 273 288 272 228 257 283 249 237 257 248 271 271 264 299 242 232 291 247 271 272 280 293 274 250 282 274 264 246 263 283 270 245 246 286 257 239 292 274 257 260 271 292 259 286 285 293 283 297 256 264 241 271 298 279 263 265 250 284 269 259 257 277 229 267 227 263 247 223 261 230 240 271 286 285 263 239 259 276 266 235 258 283 233 250 251 231 281 271 244 237 230 233 245 238 243 258 245 216 250 244 276 248 245 248 259 256 267 244 238 259 235 240 249 276 241 236 242 237 248 258 227 234 214 230 249 217 218 213 244 250 209 226 226 225 223 238 241 226 199 216 210 219 216 196 230 232 205 222 218 244 225 227 206 209 213 210 210 219 199 247 201 210 227 217 206 239 215 212 210 233 216 195 193 233 226 220 222 211 190 223 203 198 217 191 207 218 231 221 214 217 208 215 199 215 185 218 213 199 185 194 170 232 186 163 188 228 202 196 226 182 193 197 192 204 197 213 203 204 178 194 207 197 229 243 220 193 206 215 200 226 208 179 180 236 204 176 226 190 198 225 168 208 172 207 211 175 182 209 210 201 205 213 203 176 207 207 200 209 192 198 191 204 200 193 201 191 185 185 187 194 180 208 186 195 205 188 191 202 190 166 218 187 198 213 178 201 198 203 176 181 177 164 195 162 228 171 179 198 192 194 198 189 184 195 187 189 196 183 187 192 212 190 196 178 197 184 180 182 203 160 195 204 193 201 159 200 173 196 189 179 209 185 189 173 189 239 180 180 187 193 213 191 185 186 201 186 183 206 194 186 205 168 173 199 198 222 176 180 199 192 188 181 184 188 199 179 196 198 191 193 175 208 192 186 197 187 180 173 171 194 179 165 203 207 182 197 192 190 190 170 157 187 189 209 195 178 182 205 200 198 180 168 207 200 192 212 186 191 172 197 176 181 189 198 190 169 168 173 215 197 174 202 173 184 188 189 145 177 163 175 172 188 211 199 155 191 177 181 158 186 175 233 177 197 203 192 188 165 206 206 206 208 178 187 194 166 191 176 186 185 199 170 197 198 218 187 178 225 165 198 191 180 199 192 196 181 217 175 180 194 203 204 199 165 191 157 208 202 194 197 186 180 213 193 199 162 178 200 201 180 231 220 196 202 199 202 210 190 184 194 187 192 225 225 175 214 181 181 206 217 184 234 203 217 229 207 179 198 223 233 214 233 232 218 209 218 199 212 223 191 237 223 241 223 219 229 224 231 247 258 247 262 245 219 259 227 258 232 233 257 280 256 259 276 279 307 331 310 270 305 315 331 355 367 356 394 376 400 404 422 424 466 477 464 509 502 514 535 592 538 586 601 603 696 621 623 664 660 734 708 700 689 722 770 796 749 784 797 827 775 777 775 812 779 761 721 728 729 752 765 683 738 690 675 643 647 666 614 646 591 596 567 541 531 549 515 486 486 510 479 486 442 422 411 418 409 409 338 377 354 393 378 337 327 337 328 333 290 276 250 284 264 299 261 260 272 235 218 240 271 229 240 258 269 246 212 245 244 239 256 241 233 236 261 233 236 260 248 241 217 229 226 219 220 190 224 208 218 223 228 223 212 208 209 223 216 215 217 224 213 199 196 228 227 225 218 221 223 214 227 219 213 234 243 219 235 224 221 214 238 209 203 210 223 206 240 205 247 226 227 217 201 211 217 222 248 215 257 243 221 206 211 240 234 233 208 219 229 242 216 227 220 217 259 243 218 246 243 245 233 257 259 225 261 237 258 238 273 238 234 217 238 266 287 293 265 236 257 315 286 271 270 258 295 275 273 309 278 291 262 301 244 267 267 274 284 272 293 273 275 294 286 306 277 295 242 277 244 266 266 279 280 285 273 274 267 262 289 284 283 276 269 249 265 266 250 276 260 251 277 287 245 289 294 300 270 227 277 272 271 269 286 269 267 257 269 242 304 285 289 258 266 274 301 300 277 313 294 266 294 301 277 272 291 283 288 266 305 291 310 276 311 308 289 264 275 304 267 298 301 293 303 313 293 304 282 317 323 318 291 318 310 311 332 300 323 329 336 290 334 337 343 343 281 332 291 337 319 330 290 323 331 344 312 346 299 331 356 354 322 358 332 327 314 340 332 312 337 341 335 327 359 329 353 348 381 348 297 358 321 364 332 372 309 359 366 344 361 337 352 317 380 337 381 388 381 337 370 337 362 346 362 371 354 387 336 360 378 353 326 369 350 364 358 373 351 393 365 397 368 367 356 349 388 371 354 405 357 361 348 388 386 375 367 360 341 383 355 375 400 310 367 334 345 368 396 393 357 394 375 380 364 394 345 359 371 339 333 379 351 383 392 348 360 342 361 358 354 358 360 368 330 367 323 377 348 346 354 369 329 361 377 339 323 362 352 344 301 366 354 365 325 357 319 319 342 326 321 301 324 319 303 312 347 328 337 336 322 338 303 323 334 293 304 337 320 322 316 321 341 305 304 312 302 329 329 293 314 275 278 319 278 311 317 304 300 288 294 299 293 279 335 277 266 261 295 268 262 281 291 272 282 251 262 287 293 270 278 273 269 261 257 260 271 238 240 237 261 216 267 285 269 215 239 239 264 269 263 271 228 264 262 256 260 246 259 239 264 234 239 226 228 214 246 228 259 224 236 272 229 232 245 231 229 257 257 262 210 228 246 212 223 222 197 229 200 228 216 210 221 212 232 218 221 214 225 223 200 237 210 209 203 208 246 228 238 204 200 193 241 193 224 198 189 190 205 197 213 203 202 204 180 184 201 206 209 193 189 196 211 213 203 205 219 225 194 191 204 205 172 193 201 214 187 190 211 172 211 204 202 191 179 197 172 185 186 227 186 191 196 212 169 183 165 187 166 195 173 183 194 179 204 183 196 174 185 180 180 198 168 192 184 190 170 178 175 184 183 182 183 183 169 187 184 181 161 200 188 170 167 164 168 178 165 183 187 193 186 176 154 181 181 175 186 164 193 168 180 171 187 161 157 149 189 175 168 165 164 173 171 176 187 164 152 162 160 144 176 164 161 176 161 156 172 155 175 159 192 157 170 180 144 171 159 178 139 164 189 156 136 187 139 193 139 161 189 140 162 176 161 203 180 152 172 180 133 165 174 181 150 150 172 161 179 133 154 164 154 142 137 157 197 173 169 170 152 163 150 159 165 168 161 160 165 150 172 133 150 152 157 155 190 163 161 130 159 151 146 155 150 154 147 166 155 149 134 154 145 148 176 142 148 158 161 146 147 167 157 149 154 139 124 155 154 155 125 145 159 164 141 141 155 125 130 137 144 140 128 181 141 152 176 139 133 147 150 152 142 133 146 145 159 168 147 149 146 149 141 144 130 142 147 142 156 148 135 153 135 143 143 141 139 150 137 160 119 159 134 140 160 150 145 169 147 134 137 150 136 137 139 145 153 121 146 129 133 143 139 135 140 146 137 152 135 139 143 141 158 158 153 139 141 143 124 133 136 128 166 149 146 126 181 129 156 146 137 135 150 148 129 127 149 133 155 140 136 133 144 129 146 145 141 141 133 145 110 153 138 122 143 133 133 148 142 144 140 147 149 143 135 124 140 147 139 147 160 137 126 139 145 137 145 130 148 134 153 114 141 147 133 152 139 159 153 149 155 153 138 148 126 131 151 150 153 135 136 129 142 111 127 158 143 146 140 171 150 141 135 144 144 115 133 133 153 163 153 130 143 137 136 132 133 133 146 131 127 142 140 151 146 151 135 126 133 146 153 120 154 149 136 144 150 152 146 144 138 145 138 129 147 145 131 138 164 140 128 141 141 122 125 104 127 155 152 156 141 134 142 134 142 116 137 131 131 145 127 135 145 140 147 121 130 179 148 132 139 127 144 136 157 141 126 126 141 141 126 139 139 142 134 147 132 124 149 158 137 133 129 151 130 122 135 145 136 144 142 140 148 141 153 129 145 145 123 135 137 152 137 158 158 131 138 147 142 142 127 177 149 142 148 143 145 138 125 149 147 150 126 127 120 132 150 142 136 133 143 122 126 143 144 137 118 144 131 121 133 130 149 151 127 156 167 125 147 177 132 136 143 134 135 147 141 114 144 147 145 129 138 145 147 130 146 150 138 167 152 159 173 131 141 135 130 129 133 149 142 149 157 128 145 164 157 159 147 151 131 138 143 171 138 146 149 129 148 129 133 143 118 143 147 139 130 151 127 121 159 156 154 128 127 146 150 112 126 144 144 152 139 178 145 119 139 149 138 142 157 144 118 132 127 124 144 150 137 121 150 140 113 131 126 127 142 138 143 133 137 155 156 142 134 134 134 138 136 123 159 157 166 142 146 155 143 163 130 135 146 132 129 150 159 137 131 153 133 130 146 148 145 151 155 156 128 156 154 145 144 157 166 133 150 154 160 181 154 145 135 146 180 163 146 166 162 165 145 162 152 152 173 172 162 176 155 203 181 186 190 204 176 194 208 200 208 193 209 237 202 211 256 230 212 216 257 279 250 266 249 274 295 322 282 314 313 353 312 353 316 328 328 386 347 347 337 376 357 377 389 347 365 364 356 363 394 368 362 370 382 365 400 353 343 381 382 358 381 339 332 342 318 371 328 324 307 303 325 297 304 273 283 241 279 247 279 235 245 242 223 238 234 210 228 216 215 205 191 209 217 211 175 199 185 168 194 157 176 171 182 166 186 196 204 162 179 154 181 160 154 142 152 154 153 181 165 148 171 158 154 150 170 168 147 167 155 145 148 160 160 162 160 144 147 144 130 147 148 153 149 155 158 153 137 128 147 142 134 144 148 153 156 139 134 133 114 150 145 132 149 163 126 142 137 124 127 138 135 143 145 140 115 130 121 138 134 158 135 156 145 133 151 161 153 144 139 112 145 160 165 152 127 129 117 149 120 135 143 154 143 137 131 131 152 130 128 153 107 144 129 121 139 124 137 154 136 142 132 158 141 128 138 123 142 149 136 144 150 135 130 116 151 134 154 135 147 139 139 146 143 139 141 127 128 134 136 135 126 126 133 117 143 141 156 137 136 141 171 140 164 146 134 128 137 145 139 146 132 148 120 116 137 110 121 131 132 136 126 139 138 142 130 113 136 117 174 132 116 136 133 140 125 141 128 136 139 121 125 150 133 147 141 148 131 131 134 146 138 120 122 139 153 127 124 135 134 134 127 131 146 148 122 131 154 139 110 130 135 112 132 147 120 135 139 141 126 122 130 142 131 131 118 142 167 158 151 149 140 132 149 134 130 124 174 137 140 142 127 145 138 139 139 144 135 150 132 120 136 160 144 147 131 136 120 161 158 126 146 120 138 123 132 149 118 143 123 122 156 145 133 150 138 141 142 158 157 151 158 144 143 146 154 141 144 124 106 125 143 125 145 133 137 141 130 110 147 133 152 145 144 151 139 138 148 154 126 141 166 127 152 121 147 152 142 134 144 124 142 151 133 132 152 140 128 147 134 130 120 120 164 143 155 129 140 159 136 138 135 136 135 129 141 142 124 148 163 126 141 124 146 152 150 144 123 146 143 130 150 137 128 138 134 160 150 133 158 151 148 132 128 150 161 132 152 135 122 128 183 138 158 138 150 122 134 128 147 128 138 159 147 142 156 143 131 171 142 160 138 135 157 156 143 171 147 127 143 125 126 127 150 153 172 144 144 146 156 140 151 147 132 147 129 137 145 138 135 123 150 126 143 142 144 108 155 155 132 136 158 126 157 162 143 131 140 132 163 173 127 143 146 128 146 133 148 143 147 149 157 150 140 129 158 142 151 153 143 149 154 134 147 151 147 146 142 141 153 166 160 153 146 139 148 162 139 161 144 160 167 148 131 134 143 149 152 142 164 145 165 142 160 141 159 153 182 131 135 150 161 166 139 176 162 171 143 147 137 148 157 157 161 138 150 154 150 142 118 150 138 154 156 166 129 134 159 163 175 148 162 153 146 154 154 155 142 149 148 179 157 160 173 163 142 157 167 150 139 142 146 177 187 147 138 159 162 176 164 150 177 155 166 192 179 152 149 179 164 145 161 177 180 150 168 188 168 193 174 165 168 167 187 171 179 170 182 193 190 173 173 206 182 173 186 165 184 171 195 203 198 187 182 177 189 196 209 221 195 208 218 228 210 226 201 257 270 277 269 258 271 261 276 264 278 257 294 301 315 284 318 316 312 336 359 351 379 383 399 376 350 378 380 392 402 440 421 442 422 445 416 444 470 486 527 537 488 514 513 500 558 556 550 493 528 552 540 558 564 552 535 530 551 532 565 529 551 526 562 562 557 569 571 565 517 542 525 496 533 504 541 479 491 477 461 427 492 534 469 458 439 427 423 428 434 422 374 399 374 381 361 340 348 313 310 329 334 290 311 284 304 278 262 267 295 286 268 271 247 244 265 256 222 217 231 257 213 213 217 212 197 236 214 216 216 226 200 229 176 197 201 191 204 204 186 191 182 170 205 200 177 209 171 192 180 180 185 198 182 151 168 210 195 204 154 184 185 189 193 155 176 185 182 172 169 159 163 173 167 170 178 166 190 170 185 183 168 167 169 155 156 173 162 137 172 173 154 164 169 151 164 159 155 169 151 148 142 154 162 157 189 161 188 151 162 169 170 141 163 162 178 155 198 169 169 169 177 155 151 155 158 145 174 144 160 169 187 155 175 163 176 148 152 173 147 161 156 172 174 156 154 134 131 139 150 152 163 134 164 180 187 178 167 179 166 167 151 171 147 161 144 164 157 163 173 170 183 143 143 160 136 170 169 170 171 164 170 179 163 150 155 160 164 178 159 160 154 159 150 161 170 156 167 146 153 165 162 158 159 160 157 156 163 171 162 181 179 164 173 167 149 176 158 169 151 171 162 177 167 177 170 174 188 184 187 156 151 164 172 172 176 158 182 171 153 183 164 178 164 173 194 152 158 187 177 160 160 148 168 162 162 161 162 181 179 166 178 159 168 173 175 176 168 167 162 193 142 185 175 162 192 174 187 196 200 206 174 191 175 177 213 183 176 175 174 181 175 179 187 188 173 205 191 193 196 201 165 188 188 198 188 168 159 161 197 192 192 179 171 167 189 185 188 184 190 174 195 209 182 192 209 205 166 202 207 189 184 177 199 183 184 200 199 205 192 212 163 228 187 189 177 177 182 210 170 177 175 166 163 199 197 171 182 186 183 188 155 196 187 171 176 180 196 190 190 190 194 156 198 209 156 180 207 199 187 173 187 182 190 178 163 177 195 172 156 190 181 172 201 179 216 174 195 178 175 196 172 180 196 182 192 199 180 205 173 185 199 185 190 172 191 187 190 205 200 188 188 186 176 193 194 194 184 193 176 182 173 199 190 174 197 195 217 178 201 216 209 200 201 195 197 192 198 214 192 186 194 190 192 198 209 170 187 181 196 189 195 208 183 199 193 179 222 202 200 227 202 192 213 185 205 200 210 204 161 190 205 202 188 200 207 194 209 213 192 204 231 203 219 205 261 242 197 182 194 230 243 228 217 237 226 224 199 200 217 256 190 224 198 226 225 211 225 238 228 241 214 231 226 205 225 201 227 222 220 234 240 211 248 236 236 225 230 215 216 219 214 217 223 221 221 215 197 210 206 220 232 229 212 219 202 211 211 232 201 216 234 208 192 223 216 207 218 220 204 199 227 200 226 177 189 207 206 208 185 179 204 166 182 215 208 213 195 212 209 191 200 171 227 186 187 160 205 183 184 205 175 174 184 191 176 202 194 182 194 181 183 184 182 197 188 177 175 173 187 184 163 178 170 192 206 193 159 183 176 193 179 191 215 173 191 178 191 198 160 174 189 184 187 183 178 198 185 210 161 175 195 165 209 183 170 161 179 182 172 183 169 175 194 178 176 208 181 197 192 186 190 197 174 186 194 178 162 222 181 171 191 186 182 183 179 161 192 178 171 186 168 183 187 162 163 151 180 172 144 172 176 179 183 171 161 164 169 152 178 172 170 148 186 159 167 167 184 171 186 167 165 179 189 175 174 173 163 188 168 179 182 180 150 189 169 189 187 192 179 183 147 169 172 163 153 147 168 191 190 176 193 171 158 188 178 178 186 192 179 197 150 161 175 173 189 186 183 156 171 201 157 155 147 155 184 166 179 175 166 167 170 180 165 197 180 177 178 180 183 150 168 172 156 200 173 168 175 174 180 174 184 139 168 162 171 194 205 152 191 164 169 163 158 165 201 145 173 170 169 191 171 174 182 145 155 182 147 168 187 153 186 173 163 192 165 193 180 175 155 162 160 171 146 159 161 166 179 174 187 178 171 164 153 177 180 170 174 163 177 163 176 161 166 161 148 182 159 195 177 169 151 169 146 125 186 190 156 194 151 154 162 144 187 162 165 168 168 149 170 179 173 179 164 174 169 183 162 158 147 172 168 170 168 151 184 201 178 154 159 156 146 155 169 185 172 171 178 157 138 162 151 185 176 189 148 181 176 185 178 155 167 162 196 179 172 174 163 174 179 195 166 167 162 177 176 184 181 169 170 162 167 180 188 177 195 177 154 174 170 153 168 183 168 179 177 170 184 197 176 182 174 176 186 185 175 180 180 187 176 176 195 156 196 153 168 195 206 161 173 176 180 180 190 162 193 182 187 198 185 199 162 184 183 155 192 154 144 158 206 164 192 198 164 163 198 185 195 151 184 188 198 195 196 195 176 184 189 178 174 186 183 212 199 193 183 190 180 190 191 182 187 177 202 192 211 180 179 186 187 192 186 184 198 171 175 198 194 180 186 190 202 207 201 182 195 206 217 181 195 226 193 214 196 188 183 178 177 202 182 176 179 179 200 186 197 208 189 181 176 196 209 178 213 193 191 217 179 204 208 185 216 214 193 184 199 191 192 188 182 195 218 203 220 191 206 193 198 220 230 212 183 194 205 212 214 194 215 189 194 230 222 223 189 218 210 215 194 238 217 208 202 208 202 241 199 239 221 226 198 192 211 178 199 218 212 231 198 235 228 231 199 226 214 199 237 197 236 222 213 229 210 224 225 233 230 234 215 198 224 234 226 212 241 238 220 248 210 267 236 221 232 233 259 242 232 262 241 238 221 299 219 233 232 264 293 223 274 235 230 243 264 263 236 267 263 234 257 266 292 258 283 233 256 291 268 250 264 263 261 285 303 298 251 277 280 280 279 269 259 301 262 286 265 298 292 298 283 283 277 298 276 307 298 328 289 274 297 294 269 302 298 326 293 322 323 303 339 322 305 297 331 297 282 332 336 341 311 353 354 347 330 321 325 354 358 372 364 400 389 371 363 403 413 382 377 402 418 443 392 422 427 414 430 449 468 411 433 501 456 457 464 484 481 501 485 544 526 495 486 510 556 504 489 547 490 526 528 525 543 535 545 542 531 536 521 539 537 492 531 555 535 529 532 534 546 476 504 474 521 512 493 455 493 527 515 518 507 498 496 490 450 487 493 458 484 416 486 491 464 459 487 484 471 444 452 452 465 455 429 453 425 439 450 458 435 440 443 438 482 458 448 403 451 416 402 470 429 446 483 444 429 459 436 451 433 462 407 471 439 452 420 447 462 399 388 435 462 468 442 418 411 427 398 454 431 395 446 426 439 434 426 430 455 411 447 404 386 433 451 407 379 394 423 433 399 427 445 393 435 383 426 421 439 411 372 418 416 401 388 399 387 434 397 397 373 396 405 351 371 432 411 423 398 400 377 398 380 389 376 394 411 383 394 347 392 348 351 358 345 366 375 374 386 352 382 366 351 358 353 344 377 340 355 354 370 345 358 363 353 383 378 350 361 388 376 367 354 327 354 331 362 319 340 372 357 311 335 350 359 351 341 305 309 363 341 345 327 336 330 356 349 350 377 363 320 349 346 359 361 382 383 371 360 389 356 369 384 376 417 425 410 461 440 461 397 463 452 447 486 510 474 502 531 531 570 480 545 492 530 520 495 548 540 520 536 503 526 515 505 499 512 519 495 473 466 506 458 429 477 478 455 468 463 468 445 463 425 433 408 463 401 382 391 395 398 377 381 383 365 386 364 337 329 334 327 321 310 264 297 306 281 302 269 277 271 264 283 272 265 269 277 276 249 246 229 203 231 242 209 241 191 210 251 243 213 210 221 205 187 183 217 222 207 214 183 175 215 202 183 193 212 183 166 201 189 198 208 188 179 205 173 162 211 163 201 173 203 205 199 177 172 179 182 190 198 206 160 196 165 192 211 190 188 166 187 183 185 192 187 182 169 185 163 178 174 156 171 156 170 143 170 185 159 150 185 168 134 158 175 153 163 158 171 176 152 171 174 152 159 147 171 161 162 176 177 140 169 182 158 136 169 148 140 159 176 144 159 154 149 163 183 147 161 169 162 145 169 150 155 163 170 158 160 138 157 146 149 125 148 143 158 120 158 148 138 150 145 142 160 146 140 143 143 152 145 134 136 163 132 149 160 151 144 147 138 141 164 126 148 137 132 148 142 132 128 160 136 156 146 147 144 135 160 133 149 146 132 130 130 135 158 139 151 138 143 149 132 142 132 144 135 144 142 134 135 143 149 134 138 128 139 130 171 145 154 130 166 156 126 141 136 136 133 121 136 148 131 127 143 124 145 132 141 130 138 150 143 131 150 147 145 147 141 138 141 143 130 130 127 146 150 138 148 146 148 131 116 152 137 145 143 135 140 166 130 145 130 134 152 121 149 142 161 118 160 128 137 145 150 147 141 147 163 128 124 151 142 155 145 142 137 142 140 121 150 131 137 149 144 139 125 130 163 138 145 106 141 123 138 133 136 121 135 160 146 137 131 133 125 152 140 135 119 139 137 128 120 112 117 131 146 126 101 124 135 122 140 121 126 130 120 123 129 129 137 143 128 142 142 131 113 126 131 124 141 128 139 128 119 133 154 116 109 125 149 118 127 125 115 123 111 128 118 128 122 128 139 131 128 119 140 127 122 128 115 124 124 139 121 130 119 146 111 136 132 118 121 143 121 115 108 115 125 129 104 132 113 134 119 129 144 135 128 135 120 109 139 128 129 114 119 122 122 125 116 123 116 102 124 124 111 120 131 117 133 108 131 148 131 123 130 145 123 140 102 131 121 114 127 127 115 120 128 134 137 111 117 137 128 114 136 123 134 135 103 127 136 123 111 149 125 114 124 110 136 120 124 106 113 122 121 110 112 112 125 137 113 126 125 109 125 102 127 134 118 130 117 128 122 137 118 113 110 124 99 120 105 125 119 142 110 125 123 135 106 113 138 130 136 110 123 127 119 151 117 113 113 115 127 123 116 104 123 109 119 103 114 109 100 102 117 142 114 121 116 143 136 120 122 94 119 123 125 99 116 113 141 131 124 124 105 113 96 147 103 106 109 116 123 121 119 111 122 102 88 104 142 130 115 110 122 124 107 110 129 115 111 133 118 101 120 111 108 113 124 119 118 110 119 125 129 119 110 123 100 124 121 107 107 119 120 121 118 114 124 109 120 131 138 129 110 132 132 126 123 116 114 132 118 120 125 116 128 130 118 118 116 124 123 112 119 109 124 144 104 127 117 120 125 119 121 122 121 120 113 123 119 129 119 115 137 120 97 122 117 111 127 126 106 111 113 125 163 138 115 124 134 99 124 120 118 132 108 122 93 121 119 128 125 123 119 103 120 124 118 96 129 130 122 117 116 140 102 102 114 133 125 96 106 119 119 125 115 106 114 111 98 114 122 114 105 125 121 125 124 97 117 138 116 109 132 128 136 132 106 115 115 122 117 104 113 134 110 128 112 116 136 126 126 138 128 115 99 102 103 114 114 121 120 125 122 114 127 126 130 138 128 119 130 95 125 107 118 91 115 105 100 120 115 111 129 116 120 117 125 120 109 123 119 113 117 101 114 131 135 116 128 114 120 109 133 117 127 98 101 120 133 110 124 104 118 108 96 102 108 128 128 142 109 121 116 111 94 123 109 118 122 101 117 128 126 125 106 118 107 119 130 112 130 119 118 130 121 126 123 119 124 131 138 122 145 130 121 142 131 104 117 119 121 131 125 135 139 116 112 122 121 115 119 129 127 144 107 146 136 142 138 122 136 121 123 139 122 111 132 118 116 117 128 118 134 136 124 110 128 127 117 130 129 123 139 126 117 124 110 121 116 122 125 110 128 128 110 129 117 125 114 135 126 132 114 142 116 111 109 117 124 117 109 131 121 108 129 102 118 99 106 126 109 115 123 111 123 135 125 139 111 110 121 105 132 120 125 125 105 113 120 126 108 133 100 97 115 113 119 118 117 99 127 128 110 109 111 140 100 107 129 121 135 125 142 109 128 113 124 118 110 120 112 113 103 114 106 125 124 106 125 127 119 112 122 101 147 108 118 105 125 125 112 118 131 121 109 131 116 90 131 117 147 121 118 121 141 112 111 127 127 113 132 105 104 119 106 90 109 128 113 117 125 117 122 110 123 109 117 125 116 113 128 106 125 123 117 113 111 126 106 122 154 104 126 141 113 146 121 112 118 118 125 116 104 136 123 133 127 109 116 120 117 125 113 104 117 106 106 121 109 135 132 112 116 103 119 134 125 119 128 123 98 125 116 123 118 149 89 134 117 120 137 123 114 121 124 102 109 141 126 122 117 130 130 110 122 121 114 125 109 112 116 133 107 125 139 114 129 129 145 123</intensities>
			</dataPoints>
		</scan>
	</xrdMeasurement>
</xrdMeasurements>
