<?xml version="1.0" encoding="UTF-8"?>
<xrdMeasurements xmlns="http://www.xrdml.com/XRDMeasurement/1.7" xmlns:xsi="http://www.w3.org/2001/XMLSchema-instance" xsi:schemaLocation="http://www.xrdml.com/XRDMeasurement/1.7 http://www.xrdml.com/XRDMeasurement/1.7/XRDMeasurement.xsd" status="Completed">
	<comment>
		<entry>Configuration=Conf. Reflection-transmission spinner, Owner=User-1, Creation date=2/28/2018 8:43:02 AM</entry>
		<entry>Goniometer=Theta/Theta; Minimum step size 2Theta:0.0001; Minimum step size Omega:0.0001</entry>
		<entry>Sample stage=Reflection-transmission spinner; Minimum step size Phi:0.1</entry>
		<entry>Diffractometer system=EMPYREAN</entry>
		<entry>Measurement program=C:\PANalytical\Data Collector\Programs\sample-1.xrdmp, Identifier={BB6687EE-8248-4E06-B0C7-67735DEB5D7E}</entry>
		<entry>Batch program=C:\PANalytical\Data Collector\Programs\P6.xrdmp, Identifier={7BD5230E-A2B7-4B30-ABCA-6DDD4F314F6E}</entry>
	</comment>
	<sample type="To be analyzed">
		<id></id>
		<name></name>
		<preparedBy></preparedBy>
	</sample>
	<xrdMeasurement measurementType="Scan" status="Completed" sampleMode="Reflection">
		<comment>
			<entry>PHD Lower Level = 4.02 (keV), PHD Upper Level = 11.27 (keV)</entry>
		</comment>
		<usedWavelength intended="K-Alpha 1">
			<kAlpha1 unit="Angstrom">1.5405980</kAlpha1>
			<kAlpha2 unit="Angstrom">1.5444260</kAlpha2>
			<kBeta unit="Angstrom">1.3922500</kBeta>
			<ratioKAlpha2KAlpha1>0.5000</ratioKAlpha2KAlpha1>
		</usedWavelength>
		<incidentBeamPath>
			<radius unit="mm">240.00</radius>
			<xRayTube id="1010048" name="Empyrean Cu LFF HR (9430 033 7310x) DK427586">
				<tension unit="kV">40.0</tension>
				<current unit="mA">40.0</current>
				<anodeMaterial>Cu</anodeMaterial>
				<focus type="Line">
					<length unit="mm">12.0</length>
					<width unit="mm">0.4</width>
					<takeOffAngle unit="deg">4.4</takeOffAngle>
				</focus>
			</xRayTube>
			<xRayMirror id="27020009" name="Bragg-Brentano HD" hybrid="false">
				<crystal type="Graded" shape="Flat">BB/HD</crystal>
				<acceptanceAngle unit="deg">0.800</acceptanceAngle>
				<length unit="mm">55.3</length>
			</xRayMirror>
			<sollerSlit id="21010002" name="Soller slits 0.04 rad.">
				<opening unit="rad">0.0400</opening>
			</sollerSlit>
			<mask id="22030009" name="Fixed mask 10 mm">
				<width unit="mm">10.00</width>
			</mask>
			<antiScatterSlit id="22010003" name="Fixed slit 1°" xsi:type="fixedAntiScatterSlitType">
				<height unit="mm">1.52</height>
			</antiScatterSlit>
			<divergenceSlit id="22010005" name="Fixed slit 1/4°" xsi:type="fixedDivergenceSlitType">
				<distanceToSample unit="mm">140.00</distanceToSample>
				<height unit="mm">0.38</height>
			</divergenceSlit>
		</incidentBeamPath>
		<diffractedBeamPath>
			<radius unit="mm">240.00</radius>
			<antiScatterSlit id="22090010" name="AS slit 8.0 mm (PIXcel)" xsi:type="fixedAntiScatterSlitType">
				<height unit="mm">8.00</height>
			</antiScatterSlit>
			<sollerSlit id="21020003" name="Large Soller slits 0.04 rad.">
				<opening unit="rad">0.0400</opening>
			</sollerSlit>
			<detector id="7010019" name="PIXcel1D-Medipix3 detector" xsi:type="rtmsDetectorType">
				<phd unit="%">
					<lowerLevel>25.0</lowerLevel>
					<upperLevel>70.0</upperLevel>
				</phd>
				<mode>Scanning</mode>
				<activeLength unit="deg">3.3482</activeLength>
			</detector>
		</diffractedBeamPath>
		<scan appendNumber="0" mode="Continuous" scanAxis="Gonio" status="Completed">
			<header>
				<startTimeStamp>2025-12-26T13:50:34+08:00</startTimeStamp>
				<endTimeStamp>2025-12-26T14:02:03+08:00</endTimeStamp>
				<author>
					<name>User</name>
				</author>
				<source>
					<applicationSoftware version="5.5a">Data Collector</applicationSoftware>
					<instrumentControlSoftware version="7.9j 20171025">EMPYREAN</instrumentControlSoftware>
					<instrumentID>0000000011214615</instrumentID>
				</source>
			</header>
			<dataPoints>
				<positions axis="2Theta" unit="deg">
					<startPosition>6.00558257</startPosition>
					<endPosition>75.99655438</endPosition>
				</positions>
				<positions axis="Omega" unit="deg">
					<startPosition>3.00279129</startPosition>
					<endPosition>37.99827719</endPosition>
				</positions>
				<positions axis="Phi" unit="deg">
					<commonPosition>0.0</commonPosition>
				</positions>
				<commonCountingTime unit="seconds">13.770</commonCountingTime>
				<intensities unit="counts">596 583 611 570 566 581 594 603 624 558 546 588 553 558 569 587 610 615 591 579 529 570 597 580 551 584 539 571 565 524 566 529 572 589 529 550 573 549 596 540 558 583 562 542 579 543 542 535 536 567 550 577 601 526 521 568 564 542 552 536 546 567 552 547 539 551 595 544 566 570 533 499 548 577 526 578 544 528 542 540 562 537 557 584 579 533 556 524 558 539 561 551 519 528 555 539 551 583 573 499 554 545 522 559 503 532 556 549 523 542 513 560 516 509 545 552 511 528 544 496 562 584 527 541 546 523 546 540 542 495 541 563 539 508 507 521 512 541 559 511 557 529 530 515 548 571 546 523 483 528 593 552 519 502 503 498 554 554 538 534 541 554 509 502 497 547 527 524 535 509 547 543 549 515 552 518 529 522 526 521 518 501 498 501 525 511 526 531 491 499 501 543 515 510 492 495 538 490 524 543 497 559 553 529 521 495 525 498 534 509 537 486 553 550 520 497 514 514 520 497 539 494 492 526 520 491 516 557 489 537 499 525 510 477 544 540 563 541 512 503 504 527 510 498 492 533 527 522 490 472 567 522 502 496 473 527 493 524 476 514 465 532 456 525 472 505 496 456 473 522 523 517 496 512 531 534 514 524 506 489 504 488 467 491 464 474 521 477 494 515 473 548 501 526 504 526 498 527 490 483 480 511 489 520 495 499 523 548 498 525 505 480 509 510 481 526 489 509 515 523 496 482 478 530 490 548 505 498 489 539 467 476 510 519 498 509 503 508 494 516 520 463 527 512 499 499 478 492 523 487 457 513 517 524 527 492 481 481 476 496 495 487 447 489 536 509 468 488 512 487 480 473 473 503 496 494 524 492 485 466 498 526 511 472 496 477 489 482 475 490 488 500 491 472 433 514 502 496 513 493 482 480 469 515 518 465 476 472 506 500 464 456 510 456 475 473 508 512 453 456 470 528 492 483 511 454 494 503 506 497 508 468 510 463 470 489 484 524 464 438 498 495 452 459 484 507 496 487 515 471 484 503 500 470 477 492 496 523 472 450 482 443 483 488 463 472 485 471 482 466 495 466 492 506 430 478 486 468 444 503 466 490 496 498 498 486 474 495 489 450 442 457 508 478 458 481 444 453 429 484 511 475 481 428 467 474 469 481 445 500 488 473 445 460 430 457 439 453 468 455 482 473 528 462 465 490 444 476 477 497 442 462 443 434 450 435 467 497 471 503 454 468 445 443 470 458 415 480 444 516 425 456 452 452 469 442 464 495 462 477 456 438 508 447 442 414 439 461 472 488 427 443 428 427 466 488 450 472 461 471 456 423 434 473 461 436 447 481 449 459 472 453 511 442 450 488 412 473 422 448 433 465 448 443 428 428 434 441 453 466 443 440 434 432 442 456 449 490 391 435 453 442 467 425 432 458 453 445 412 446 468 450 429 431 451 439 467 410 459 449 439 452 382 487 449 468 418 409 421 405 424 448 460 400 438 467 439 421 451 483 430 465 429 491 414 457 436 425 457 432 477 409 454 419 456 427 468 467 474 426 487 434 430 464 411 407 434 457 467 440 456 449 448 412 399 447 455 454 435 441 413 432 400 466 412 446 420 401 447 442 409 457 421 421 397 426 407 432 427 443 436 395 449 439 417 485 428 432 400 437 435 388 447 428 433 410 421 425 458 463 406 454 433 414 469 420 444 425 442 411 426 420 438 485 404 448 426 443 409 411 444 418 388 439 446 433 428 409 404 405 396 409 413 414 389 445 382 384 377 431 412 405 438 412 398 405 388 436 429 465 429 422 387 350 439 413 427 417 442 404 410 394 458 382 417 421 411 422 393 385 376 407 406 370 436 435 410 377 394 398 410 388 403 434 413 465 448 430 412 430 398 408 376 403 413 396 385 417 389 395 396 412 384 409 446 391 421 363 382 449 391 394 419 386 406 381 419 418 424 354 392 387 399 409 404 389 426 401 428 412 395 381 407 426 393 414 420 372 413 399 439 414 376 375 415 405 410 448 415 383 413 402 420 387 394 397 359 386 385 388 385 393 330 405 376 389 399 373 400 431 407 382 385 379 383 375 412 376 393 385 362 384 391 379 383 409 366 376 392 365 398 415 439 397 394 403 369 378 349 379 396 370 382 363 386 382 382 377 409 379 382 393 388 404 382 398 397 360 399 394 407 404 400 383 425 389 399 382 390 377 356 351 390 360 391 354 365 346 376 382 393 373 397 371 406 365 360 377 382 363 377 388 384 364 387 388 350 361 353 380 374 352 386 350 391 333 340 354 406 385 363 389 351 340 336 384 393 377 340 392 387 351 332 387 356 373 369 362 391 364 367 386 392 358 353 350 369 337 333 370 369 390 358 374 420 354 311 417 374 374 363 395 380 348 353 387 391 371 357 375 379 348 349 392 380 353 380 331 338 351 341 360 399 343 346 354 382 358 393 355 375 333 426 351 383 388 382 354 343 320 375 380 342 388 333 379 359 356 365 368 321 342 339 342 362 322 362 361 353 361 365 348 346 350 360 365 353 371 326 352 355 367 364 390 358 387 324 327 389 356 343 342 367 368 355 349 360 353 338 362 377 357 347 324 323 300 346 338 341 353 363 376 389 375 354 333 372 351 309 352 343 370 342 381 347 369 347 311 372 339 362 310 342 342 352 336 363 340 322 335 349 344 340 330 339 325 361 357 344 372 348 352 304 354 351 333 349 329 342 374 334 359 332 335 362 322 353 374 356 344 332 337 343 350 359 322 327 349 374 350 343 345 348 341 350 324 343 351 321 346 328 344 359 355 299 300 316 307 353 351 307 347 330 340 342 346 329 310 339 336 337 328 358 353 330 339 354 385 307 335 302 332 304 347 328 336 341 350 356 364 337 336 334 344 344 350 319 326 346 324 327 281 324 324 314 328 323 344 346 357 356 369 303 319 320 298 367 346 339 335 317 363 322 307 317 301 305 324 348 330 361 297 339 318 313 307 326 324 337 353 376 341 319 338 309 348 322 348 297 310 351 348 329 335 348 331 351 330 360 313 315 319 311 326 333 288 329 343 315 324 336 308 318 340 338 282 330 328 367 346 352 341 328 341 332 353 318 306 321 333 307 302 319 289 302 323 310 323 345 329 321 311 332 317 324 345 335 323 309 311 332 303 317 348 316 334 332 325 317 329 304 320 339 300 302 334 312 346 310 328 332 319 349 320 322 331 347 285 346 295 310 346 365 325 330 309 304 340 344 327 365 303 297 341 333 311 321 318 344 333 295 329 332 299 349 314 333 332 291 292 314 343 306 296 307 366 311 332 337 338 284 334 322 344 333 295 294 318 341 316 339 309 305 328 306 347 284 322 319 307 309 296 341 295 334 303 321 341 313 350 302 319 324 324 266 307 336 352 300 319 366 327 326 316 318 308 314 300 317 306 338 290 324 317 325 316 309 306 338 322 314 300 288 328 336 319 340 324 310 330 344 330 305 336 313 283 309 330 320 307 287 319 351 286 317 343 341 341 307 302 280 333 309 326 302 315 349 329 320 323 340 336 287 319 311 301 299 326 299 343 306 340 313 309 339 321 282 312 346 313 311 332 310 304 290 315 307 324 297 302 314 348 331 340 323 327 299 313 341 313 295 289 333 335 305 328 320 309 319 296 327 331 322 331 332 298 299 317 338 347 315 310 304 317 324 333 295 291 306 309 334 323 309 325 355 312 331 322 315 335 297 334 303 345 326 362 332 333 309 327 303 321 335 311 323 318 306 307 332 321 339 307 305 296 299 309 348 339 312 319 310 309 287 290 277 345 322 315 307 313 314 315 298 351 330 320 323 339 329 311 296 333 305 307 334 348 316 315 318 297 325 352 353 357 310 308 318 315 352 314 333 307 360 314 335 332 326 302 322 340 303 363 316 283 295 299 348 347 321 303 352 281 356 330 301 312 326 293 335 320 308 325 351 339 295 318 310 341 346 335 359 321 323 303 377 344 320 319 321 325 338 321 323 309 359 302 303 328 317 334 345 328 339 314 312 313 311 318 303 320 341 323 310 327 330 326 311 309 313 336 361 347 276 333 318 316 348 315 326 335 322 352 346 330 277 317 336 314 346 311 298 306 314 317 319 346 302 340 331 319 301 311 327 332 298 350 311 313 338 320 344 342 373 307 314 322 313 330 334 334 320 310 344 319 349 338 346 355 328 340 350 356 337 338 312 344 312 319 355 324 357 353 350 355 348 325 328 363 358 345 335 353 321 323 341 331 289 317 313 341 306 335 346 304 352 322 340 321 315 331 325 322 332 347 334 346 301 335 310 360 321 339 336 350 338 369 342 345 317 358 331 330 351 319 339 307 318 307 335 342 316 341 279 336 333 333 329 372 353 348 332 316 300 378 340 304 325 336 356 355 356 324 354 301 363 358 330 293 334 335 339 359 353 339 330 350 329 352 332 360 319 329 329 322 361 320 338 320 349 328 314 334 306 340 323 330 348 339 354 336 348 326 332 327 343 334 344 318 320 341 333 362 326 321 330 336 346 348 341 367 364 334 360 322 325 372 355 328 333 323 336 296 326 344 348 381 317 344 336 333 352 348 336 333 347 309 356 338 335 333 330 321 353 324 330 345 338 330 350 338 369 337 322 355 338 321 316 354 324 330 351 360 326 336 318 343 340 338 353 339 361 337 307 354 357 355 367 375 363 363 352 340 332 380 367 360 334 367 360 353 362 354 357 330 369 332 312 367 368 354 365 349 332 308 367 311 340 363 347 330 347 369 349 332 364 338 363 340 371 350 337 334 345 346 301 314 330 363 346 341 342 391 367 348 407 374 383 374 361 353 336 363 369 372 356 345 345 320 358 364 335 365 372 376 371 370 356 366 297 360 332 396 355 346 333 331 327 329 360 365 343 354 373 369 326 368 376 358 357 345 371 333 354 361 366 345 342 400 370 323 331 366 358 362 358 390 369 370 345 351 381 320 335 375 376 355 333 400 369 336 356 347 358 368 394 338 331 350 356 362 343 392 387 362 374 363 372 369 375 338 385 369 339 325 355 390 349 361 340 365 330 341 390 360 354 350 348 334 350 381 356 339 383 388 382 351 338 363 353 358 394 346 353 355 357 371 332 351 379 333 372 330 347 391 340 368 362 343 367 340 373 358 373 393 352 345 344 344 355 346 347 370 367 346 429 329 341 367 370 352 343 371 369 390 361 362 342 386 377 355 354 378 332 354 342 340 340 343 320 356 339 356 331 369 398 371 378 370 385 361 386 387 392 358 358 356 358 378 363 369 380 360 360 345 336 383 379 366 355 328 374 375 361 332 380 371 333 366 355 380 357 364 387 389 359 375 340 382 384 396 358 363 401 341 378 345 345 386 367 366 378 357 390 363 387 348 340 385 366 359 347 352 379 367 355 364 391 347 332 369 348 382 333 390 356 398 343 346 380 392 351 391 375 385 351 356 358 357 344 401 350 352 395 366 373 372 333 361 356 375 363 364 376 385 349 371 371 369 351 364 361 357 409 359 372 372 345 352 363 345 334 374 363 358 334 377 362 349 386 375 367 368 360 361 382 371 384 380 351 363 383 362 356 364 354 372 335 365 368 368 374 359 368 350 375 369 389 389 333 362 382 372 366 372 363 343 350 389 347 392 361 363 377 366 377 343 385 377 371 376 346 376 379 351 393 356 356 369 385 388 392 382 388 354 361 384 351 306 362 362 343 377 350 369 367 363 378 380 389 355 364 379 380 407 389 369 386 373 367 353 388 396 366 350 367 385 382 379 373 370 339 364 374 325 375 373 345 372 356 370 347 378 350 351 344 363 348 384 334 357 357 346 342 380 408 385 391 348 384 337 354 385 419 367 393 358 362 356 350 338 373 387 380 357 379 356 355 364 385 356 364 333 383 400 368 350 364 379 368 388 353 351 338 381 373 375 343 368 377 375 371 377 372 361 357 371 342 373 311 362 350 319 379 363 350 434 348 395 321 351 365 350 355 355 336 363 355 362 349 389 360 384 382 355 358 355 388 362 374 366 350 376 364 346 349 381 340 349 369 340 357 369 363 354 343 356 358 349 369 345 385 331 369 359 370 349 372 355 342 362 334 332 359 347 364 368 388 340 375 362 342 366 360 383 389 359 389 372 362 348 340 345 371 351 336 377 353 374 349 350 362 351 334 379 361 367 341 355 383 340 358 372 385 339 356 335 338 321 369 362 371 392 384 378 351 340 368 345 357 333 367 358 332 349 349 353 346 343 336 362 352 390 366 371 328 380 346 380 341 354 366 305 350 339 354 315 357 347 330 371 382 345 354 363 339 372 374 356 350 357 347 348 370 328 361 380 338 357 320 333 340 366 345 387 370 345 342 347 332 347 341 317 351 368 332 378 335 359 343 370 372 360 377 403 354 343 348 363 353 349 360 387 346 354 362 336 360 341 376 350 372 368 344 360 385 360 329 328 356 325 371 350 379 394 352 352 352 372 351 328 367 353 334 358 318 350 356 349 346 339 322 329 365 332 363 339 396 366 341 307 324 340 334 352 354 373 328 368 361 346 333 334 359 331 358 360 361 358 356 372 332 344 324 341 344 335 369 381 375 331 363 378 351 306 371 361 308 346 338 336 349 320 354 369 302 339 348 360 321 343 309 371 358 348 352 345 323 350 313 340 352 326 355 390 402 411 350 366 341 327 320 356 341 370 341 347 341 324 309 379 382 345 354 345 343 335 343 345 319 327 342 383 337 366 325 377 327 364 357 373 339 378 356 348 369 327 327 339 350 331 346 362 344 383 350 337 326 335 332 354 351 363 339 367 324 347 308 366 327 343 333 369 356 326 348 359 345 357 365 372 378 327 355 337 340 338 329 319 354 385 321 359 364 348 367 343 358 325 370 349 318 328 362 352 357 323 355 355 351 351 336 342 344 382 359 341 332 346 335 374 329 371 356 359 345 348 363 331 343 369 344 343 368 349 345 361 376 356 335 344 340 324 334 311 359 335 363 312 342 348 379 341 356 333 353 342 342 309 323 314 328 331 318 310 319 318 319 334 336 360 322 308 358 362 341 335 326 302 338 333 289 359 344 369 308 343 309 366 307 314 341 326 342 322 359 348 330 317 347 356 342 331 356 315 328 344 325 356 358 335 373 324 322 325 332 346 329 370 331 323 335 337 361 378 304 316 353 317 326 352 311 333 336 343 325 319 339 368 352 345 349 333 335 321 343 306 351 353 320 330 295 329 333 321 368 318 350 332 334 325 344 294 331 338 318 321 330 349 305 279 362 345 331 346 332 345 323 363 329 338 348 325 330 335 343 322 308 295 339 332 383 312 299 363 360 347 314 320 353 309 320 336 338 357 307 320 316 307 351 323 332 320 311 321 344 302 378 343 345 341 337 287 337 308 343 316 311 339 332 323 350 326 317 300 326 341 316 318 333 302 339 327 354 329 319 330 293 337 323 299 315 310 331 352 346 348 347 324 339 332 344 312 312 347 311 324 356 310 338 354 320 312 308 296 326 336 332 313 346 361 349 317 360 298 356 348 310 355 337 322 339 308 308 341 281 325 327 330 350 324 340 318 341 350 322 322 354 324 348 317 353 333 297 331 346 302 304 346 331 337 311 313 355 345 333 330 328 351 322 350 354 366 337 319 327 341 323 292 347 324 354 293 342 326 348 349 320 333 315 319 348 332 312 332 345 333 339 326 346 319 325 356 324 326 362 308 321 312 344 296 344 294 330 326 335 313 351 283 334 356 316 361 343 302 344 347 310 366 324 341 344 328 302 325 297 340 353 301 316 303 350 335 331 321 307 342 334 355 316 369 304 340 328 324 338 302 297 365 342 304 327 332 314 292 310 350 323 333 327 310 320 312 344 312 306 321 343 305 338 348 348 338 327 339 334 305 322 359 317 301 345 322 338 342 289 311 304 353 315 345 316 335 312 283 347 330 282 315 345 323 292 335 327 302 354 314 323 350 294 339 342 327 311 339 347 329 341 345 325 345 327 320 341 339 300 344 320 314 340 287 326 318 306 323 331 316 324 307 320 336 330 340 320 333 321 322 311 330 300 316 353 317 323 319 329 326 304 343 333 304 291 345 316 318 315 314 330 282 325 311 337 315 321 330 331 358 338 329 331 321 304 315 326 300 331 340 305 332 344 338 324 329 370 347 335 325 314 321 304 303 314 334 346 305 324 321 343 303 349 301 308 321 284 319 298 323 311 323 298 326 321 349 317 308 294 283 323 307 350 299 335 318 325 326 338 314 341 266 327 336 307 308 340 335 315 350 336 334 311 311 309 321 346 320 307 332 317 312 313 293 313 288 290 307 331 324 271 366 295 331 308 325 326 319 305 339 319 315 321 319 297 333 293 333 332 330 331 308 332 320 322 334 318 332 298 332 324 304 376 340 315 300 307 332 322 299 300 321 286 333 330 332 330 314 347 310 303 298 327 298 312 343 315 344 315 319 326 292 316 312 307 331 305 289 308 312 318 312 315 323 304 342 313 347 296 336 337 342 317 338 302 319 331 302 321 340 330 283 323 289 345 341 323 318 331 321 310 332 317 308 293 309 326 310 345 346 338 323 319 343 315 299 280 306 323 291 318 336 323 329 302 292 323 320 300 289 337 299 311 319 297 319 335 329 310 337 316 299 345 315 305 343 322 310 299 331 336 307 333 309 311 290 288 336 302 347 323 323 332 295 325 297 327 285 338 326 302 305 335 321 310 314 322 306 291 313 309 307 339 324 328 318 289 320 310 332 310 320 311 279 314 320 307 313 315 303 327 332 315 317 317 314 349 323 323 277 303 317 312 301 337 297 286 345 311 277 290 323 327 333 303 312 329 310 309 323 302 292 330 304 341 307 300 338 340 307 287 330 296 316 292 318 301 269 303 322 290 316 326 322 311 296 329 341 316 337 319 332 279 303 314 321 301 317 310 315 302 317 346 339 321 312 306 327 333 287 300 307 327 322 324 338 276 302 316 291 295 341 332 325 320 305 327 301 278 343 304 308 304 321 293 340 332 300 298 297 318 289 352 296 316 325 321 309 325 352 293 299 325 304 287 312 325 298 270 302 304 309 315 298 316 303 340 310 301 329 293 284 329 322 292 294 299 287 301 314 321 310 299 300 305 278 292 332 306 264 285 294 298 325 315 294 287 310 291 315 312 297 338 283 331 332 292 341 272 322 321 365 309 309 274 310 320 327 298 317 300 296 322 316 311 307 322 291 331 305 277 333 312 341 295 290 307 290 302 293 347 310 327 287 281 309 293 310 328 305 308 290 307 326 307 309 322 317 308 267 294 296 295 318 312 288 304 301 310 292 292 325 286 315 308 315 316 292 317 296 297 318 298 322 308 296 310 292 288 302 303 304 292 328 325 291 318 288 309 311 295 322 314 260 297 304 295 320 292 321 285 289 302 308 296 323 259 279 365 305 328 287 299 324 310 292 302 315 301 278 305 298 291 314 264 296 280 298 280 314 287 291 315 288 262 302 298 280 284 296 308 280 339 282 316 304 286 327 311 293 288 304 306 317 323 276 320 305 295 308 292 315 310 328 299 312 312 291 300 316 306 316 316 299 313 312 329 310 342 323 333 308 284 290 321 301 295 305 304 305 312 312 291 322 279 308 345 293 306 319 325 297 282 315 309 312 286 293 303 273 305 289 292 310 296 307 291 314 281 312 287 318 274 296 293 284 329 313 297 302 248 311 343 284 278 284 306 271 293 296 283 271 289 311 281 287 283 314 297 312 291 295 292 303 303 311 287 286 292 293 300 295 306 286 284 298 281 275 281 303 333 281 285 289 296 275 310 310 298 312 270 298 313 296 304 264 295 316 298 294 284 284 293 328 308 308 307 287 298 311 299 295 288 286 297 275 295 347 310 314 281 284 280 333 264 297 286 283 289 315 269 280 328 326 304 288 290 321 293 303 317 284 296 281 323 312 275 291 325 338 287 287 300 273 321 320 320 273 323 286 330 296 274 295 290 272 306 280 330 311 280 292 259 295 300 299 284 292 278 286 291 296 309 296 289 295 309 311 303 325 315 325 302 288 267 298 278 278 285 345 281 347 247 286 312 303 302 294 313 278 297 288 279 342 298 307 292 315 262 308 279 307 308 268 320 300 283 299 312 289 322 303 296 273 290 289 297 291 309 275 279 328 296 286 282 303 296 274 306 289 302 264 310 329 312 278 279 309 320 305 294 298 282 289 300 276 310 272 305 272 289 287 286 271 281 301 278 279 318 292 310 287 319 290 280 280 295 302 279 283 324 305 280 289 314 292 301 289 315 238 287 298 296 304 295 301 301 300 307 283 261 289 284 299 297 343 285 291 296 270 269 320 290 327 305 295 277 305 311 342 306 293 284 303 308 306 289 285 284 310 300 282 306 266 316 294 291 298 308 286 292 273 263 281 273 318 299 305 307 326 277 266 299 281 280 268 298 313 248 290 282 289 307 309 262 293 298 279 289 287 284 287 309 279 307 330 275 295 291 290 300 277 281 285 261 322 310 313 301 338 283 325 285 290 288 269 286 279 304 277 298 308 294 304 303 288 273 310 302 233 291 322 279 288 297 302 286 316 290 296 282 310 330 300 240 279 296 258 298 305 321 277 318 323 321 321 286 332 269 274 289 271 281 290 284 268 312 299 298 302 307 285 335 292 317 283 268 288 305 296 277 283 294 293 305 289 319 281 301 303 291 315 270 303 289 288 299 278 352 305 288 317 309 293 278 312 300 312 289 316 277 293 344 273 287 313 279 308 332 302 301 280 298 339 299 313 305 332 297 297 269 309 288 296 311 337 321 306 289 289 283 284 287 277 308 301 268 274 281 290 306 300 305 319 280 343 293 308 294 283 290 311 297 275 284 306 329 314 276 303 308 263 278 299 300 318 290 297 296 302 271 275 308 293 301 277 285 299 318 282 291 287 289 291 312 315 301 267 299 284 285 266 277 259 290 269 313 305 311 314 294 313 244 284 288 282 306 304 238 281 282 295 292 256 261 278 300 277 303 242 267 324 286 318 264 287 250 264 290 273 270 291 283 270 283 271 262 308 303 286 272 271 280 285 270 280 288 268 240 285 266 264 294 267 296 274 292 268 285 279 287 287 287 288 247 303 292 277 281 270 257 264 262 267 288 247 273 262 273 263 268 244 282 279 267 278 277 263 267 289 274 263 244 266 276 277 279 270 269 273 241 300 288 285 293 258 261 294 238 249 229 263 287 234 247 273 264 233 256 294 249 280 262 263 298 273 262 268 243 288 282 265 259 268 261 222 257 273 277 229 271 237 246 260 271 239 274 273 249 226 243 243 257 279 267 302 227 251 277 250 263 249 248 242 233 249 231 273 273 240 284 267 269 246 229 280 243 223 250 231 278 251 262 256 278 244 249 306 266 246 248 237 236 250 278 267 262 261 271 258 280 241 276 271 228 240 284 262 280 229 259 270 233 231 248 222 241 292 232 298 273 236 266 272 236 247 288 259 268 271 235 279 259 261 240 251 260 263 301 262 265 269 291 248 262 273 240 293 243 244 235 251 222 279 260 264 279 235 280 282 282 272 262 259 261 279 242 272 280 262 266 273 251 282 288 241 273 245 244 260 209 287 239 234 258 249 250 281 266 231 225 274 272 269 264 259 233 237 222 236 268 248 247 272 261 259 284 260 272 264 271 261 251 244 263 257 249 245 261 274 262 245 246 247 243 223 269 247 256 283 239 242 257 274 271 261 251 250 249 238 248 240 257 236 239 243 244 242 287 261 282 238 241 242 258 267 221 247 237 260 250 250 259 261 251 229 249 272 219 225 237 236 248 268 231 265 240 244 274 259 257 281 266 272 233 272 235 239 262 242 224 262 245 260 238 216 220 264 243 256 246 245 267 258 272 233 242 208 273 268 241 236 232 238 249 266 230 258 236 283 266 273 258 223 275 246 235 258 226 231 277 239 242 230 236 273 236 221 223 275 243 234 247 267 237 217 239 250 239 268 236 220 226 231 229 222 232 218 205 249 214 232 270 245 230 237 226 218 229 228 268 235 241 232 231 248 223 249 220 243 213 213 226 233 231 232 216 244 259 218 243 232 222 218 229 221 242 207 223 245 217 222 262 211 235 261 234 231 261 282 220 228 243 219 233 231 241 236 225 232 216 269 230 242 210 242 229 256 227 235 241 206 249 267 228 214 258 239 238 206 260 237 209 228 237 234 199 209 227 250 272 270 203 218 209 244 245 233 222 215 246 217 244 217 211 221 226 226 228 245 228 222 217 224 246 230 240 234 203 217 216 242 227 203 227 205 244 219 203 235 224 208 258 224 219 258 231 242 219 216 260 220 214 229 236 220 240 230 239 231 218 227 217 239 218 233 218 228 218 258 222 213 225 210 245 212 205 242 212 212 245 242 239 248 208 209 229 210 224 215 234 222 220 266 233 268 211 230 237 200 226 223 222 220 224 227 238 219 241 242 206 210 227 213 223 260 216 229 243 249 224 244 209 225 218 221 216 210 224 232 208 237 244 205 205 211 231 213 199 241 232 222 218 229 223 218 208 218 230 263 243 224 240 197 241 224 227 217 236 188 235 231 212 238 217 240 242 232 197 228 238 226 219 219 243 230 218 212 217 218 258 202 219 229 204 213 217 227 226 218 231 234 219 218 228 181 260 259 219 218 222 233 221 209 199 220 206 232 209 205 207 234 239 233 270 243 222 257 245 230 227 228 264 227 214 225 240 212 233 209 230 243 198 243 218 232 236 242 240 241 230 247 230 231 226 230 219 221 216 185 260 222 221 241 216 229 228 271 220 213 214 226 210 228 236 230 204 215 228 228 201 208 215 222 241 223 219 210 198 243 243 219 249 209 208 228 245 217 238 239 236 264 201 247 240 262 233 228 239 227 214 226 242 243 245 196 215 244 229 206 231 232 245 223 232 245 230 218 244 240 231 199 223 228 244 213 221 213 212 258 269 224 226 227 235 261 233 202 243 232 224 244 229 227 240 249 210 232 215 227 230 231 220 202 228 259 213 211 211 230 231 232 230 209 243 266 210 203 208 218 195 243 230 215 220 202 231 245 238 226 222 228 196 220 215 259 261 235 204 213 244 267 223 232 265 201 236 217 218 222 233 213 249 229 260 234 223 256 213 262 215 237 223 223 257 244 230 243 241 244 245 229 227 265 227 242 243 225 245 242 278 221 251 236 229 245 228 237 228 243 246 264 236 221 236 247 271 274 231 233 266 259 246 274 234 244 265 286 247 271 262 288 287 272 273 284 274 287 293 283 295 300 287 273 272 297 266 281 287 280 270 280 286 277 275 295 260 295 286 300 273 267 279 287 282 284 271 276 273 267 299 273 262 262 248 236 262 239 277 280 261 273 249 280 283 280 240 298 242 267 265 260 246 272 274 235 223 303 269 275 243 268 239 246 269 250 274 247 264 259 284 266 262 224 266 284 294 238 269 265 289 286 275 242 246 270 277 251 237 262 287 256 239 249 245 239 272 290 295 282 248 233 248 225 231 258 248 249 262 286 280 234 306 264 264 249 217 249 258 276 293 284 270 264 277 248 300 251 266 270 245 257 267 271 264 263 267 238 245 270 256 284 259 266 273 256 247 273 279 274 293 276 292 264 281 271 271 262 280 274 268 245 272 249 268 248 290 292 288 278 248 302 296 303 269 237 278 283 318 263 291 264 268 266 272 301 274 268 279 262 283 275 282 277 282 288 269 265 283 259 280 311 292 308 264 261 276 303 269 310 291 261 290 263 237 274 298 271 280 279 266 249 295 274 272 273 309 270 277 293 269 279 276 298 280 284 287 298 285 262 279 250 258 245 261 258 246 271 279 256 286 287 288 283 232 278 294 261 280 298 279 273 278 283 284 275 261 258 264 258 266 244 275 275 242 288 266 237 242 279 256 287 276 247 229 244 248 235 237 232 237 251 235 249 267 226 244 259 265 280 233 240 262 259 223 256 241 256 237 258 235 217 258 234 240 243 265 239 223 240 259 232 212 211 243 242 223 265 246 224 229 232 234 224 223 214 225 245 230 234 226 217 234 256 237 259 224 256 235 230 240 221 207 249 230 265 256 232 237 226 230 219 218 260 226 251 202 260 204 227 207 203 210 232 239 224 210 221 211 249 222 231 228 230 233 191 243 242 233 192 223 227 205 224 213 231 216 218 222 209 210 203 216 214 232 190 225 238 197 197 231 214 237 232 226 231 229 208 212 228 217 209 241 208 220 219 202 209 204 204 228 229 208 227 211 185 241 215 249 228 222 198 206 237 221 211 225 210 218 222 211 218 204 204 199 215 208 214 216 198 204 200 190 200 203 184 220 205 191 205 184 211 182 222 221 189 191 193 182 193 181 175 197 188 194 218 220 185 212 196 211 202 216 196 196 192 228 205 175 174 204 214 195 191 170 197 216 196 187 193 200 216 212 202 218 193 211 218 186 196 197 215 180 203 191 178 208 189 185 183 198 189 225 170 201 187 179 202 178 205 197 188 224 195 166 182 191 204 218 207 201 217 186 219 222 192 204 194 215 196 167 195 190 194 187 227 201 187 196 206 183 212 197 183 203 191 194 180 200 200 194 218 209 188 198 174 184 198 211 201 166 191 190 208 191 184 177 187 177 192 180 203 189 196 196 185 185 209 163 191 203 202 179 183 216 153 184 211 199 178 183 191 196 196 200 209 178 198 192 196 187 169 194 201 198 176 201 208 177 206 217 204 188 209 177 198 190 210 190 187 201 197 171 197 193 177 188 186 188 162 210 180 179 176 176 193 187 188 170 193 168 166 190 155 200 189 193 186 183 190 196 167 182 184 184 177 173 215 180 181 204 196 202 184 181 173 207 200 190 211 181 162 179 181 188 163 204 178 180 177 187 206 175 177 185 162 178 193 177 206 173 191 186 171 186 192 176 183 170 201 181 199 183 169 162 186 177 199 180 163 193 196 198 201 204 176 182 190 186 187 175 195 178 184 192 174 168 193 208 188 192 170 170 187 155 171 189 184 168 174 186 138 172 169 174 234 176 205 178 204 174 202 176 197 204 181 194 166 197 186 190 169 160 170 201 170 203 186 179 176 189 190 165 178 168 210 202 176 191 170 169 190 182 185 190 192 160 180 219 169 182 189 165 167 193 183 153 182 188 197 202 181 201 171 178 174 168 175 190 182 173 172 176 188 172 166 203 199 172 183 192 166 160 200 196 196 196 181 176 193 160 177 198 195 186 179 180 193 197 177 175 174 179 188 179 183 179 188 169 199 184 200 174 199 163 175 184 184 196 203 191 178 175 206 192 180 180 172 190 185 152 192 196 205 185 169 190 176 181 183 164 180 192 187 158 197 196 176 192 178 176 186 192 159 182 157 178 185 184 187 168 168 185 174 171 161 177 173 186 181 187 183 212 177 192 179 181 184 181 180 181 182 164 172 181 187 176 195 182 181 169 193 161 185 176 157 178 174 182 183 179 181 174 158 178 154 196 161 152 179 179 178 193 166 198 165 183 192 172 184 175 178 177 160 153 163 157 198 155 190 198 153 162 161 172 170 180 167 179 190 170 194 130 193 190 175 178 189 168 183 176 160 168 149 189 194 176 187 170 164 179 183 174 175 174 160 207 157 180 179 188 198 171 156 188 169 167 172 188 177 182 147 152 170 164 198 184 186 179 181 169 172 180 193 183 174 158 175 172 174 183 193 183 176 184 198 178 173 193 167 181 166 182 197 168 178 190 170 170 169 194 162 174 169 182 184 173 191 153 195 154 205 185 176 173 180 199 187 184 170 174 183 188 177 182 178 198 179 175 161 169 177 172 150 182 160 196 165 156 165 169 181 177 203 181 183 159 186 184 157 174 150 202 190 167 172 167 192 178 157 181 167 187 166 179 189 179 167 196 190 172 171 184 174 168 175 165 170 177 194 159 170 176 190 186 171 170 183 176 154 168 181 188 174 181 152 196 191 187 169 169 174 179 175 184 181 158 183 165 141 198 165 203 185 178 181 202 179 168 185 157 165 184 187 183 173 177 185 177 176 184 182 189 147 178 193 164 169 183 194 171 159 172 181 188 184 186 178 192 191 163 152 161 191 181 205 179 163 154 166 202 171 165 180 195 179 174 190 177 179 185 170 189 143 182 176 203 172 211 176 196 155 195 174 202 172 179 173 186 183 185 191 202 172 191 134 188 183 198 204 184 208 176 179 192 167 161 189 187 188 161 175 177 194 183 177 187 201 201 158 177 186 168 184 176 179 201 179 191 209 171 177 183 185 168 188 156 174 175 172 199 153 183 150 184 178 153 183 175 179 151 192 159 201 156 140 164 168 179 177 199 157 198 177 193 202 169 185 169 155 186 173 196 200 182 171 185 164 172 189 166 168 161 180 177 170 180 182 173 206 187 186 168 204 177 189 172 155 198 181 191 184 172 183 158 165 199 161 193 153 166 149 179 191 165 179 162 177 182 188 175 174 151 186 189 170 166 181 189 168 166 191 182 162 167 189 175 173 188 166 184 194 181 179 175 184 185 195 193 180 193 181 178 183 176 174 189 177 192 209 171 170 189 186 162 169 186 186 188 165 189 189 186 189 163 191 176 174 182 156 180 202 178 179 179 202 206 185 170 186 170 187 187 155 181 155 195 182 172 196 170 196 187 183 179 183 166 172 161 168 169 216 178 164 170 161 203 172 179 172 184 168 190 159 196 156 196 190 177 204 190 178 176 176 165 188 154 183 196 183 190 167 180 172 176 169 190 185 177 205 171 190 191 188 175 206 182 190 177 199 174 186 190 162 180 173 187 196 184 181 168 194 175 195 158 167 182 177 174 179 175 200 156 155 185 165 201 187 225 222 173 169 176 151 164 206 159 183 177 175 172 197 168 201 181 192 188 198 198 199 172 173 163 193 178 196 183 186 180 190 152 181 177 170 171 173 192 187 177 172 161 149 198 176 204 198 168 184 199 201 186 162 156 171 189 182 186 152 175 173 186 192 186 191 176 177 185 192 168 175 171 162 179 153 167 158 162 180 168 175 158 172 167 171 177 170 185 176 173 181 181 182 182 156 165 186 174 162 178 197 165 174 195 178 192 165 152 179 190 175 190 176 218 214 190 185 196 194 172 189 166 191 199 184 183 193 180 173 170 169 205 201 183 164 196 192 175 170 195 151 182 180 185 192 181 213 198 185 172 158 186 157 189 197 196 199 182 172 179 184 183 183 177 162 169 174 158 209 161 178 178 185 160 164 188 188 172 211 206 163 202 166 180 178 166 176 193 191 158 177 173 163 165 176 191 190 185 190 169 171 167 187 178 173 198 168 196 181 171 174 190 183 186 199 185 167 168 158 156 203 191 180 187 168 164 172 172 187 199 169 190 192 198 188 191 198 160 171 197 185 185 206 239 180 198 147 202 167 177 178 202 174 158 186 182 170 194 178 192 169 185 203 164 158 176 189 177 184 178 211 177 165 163 179 198 189 178 182 199 185 187 175 162 177 170 161 199 181 158 189 173 194 187 181 167 171 178 182 190 195 188 187 220 207 203 177 181 178 185 192 191 189 199 181 185 168 203 184 194 176 198 187 172 172 170 184 200 185 180 159 202 210 161 178 184 171 173 199 189 203 168 184 211 210 194 183 169 190 197 203 193 208 209 177 165 203 197 208 215 177 193 162 196 158 200 208 192 223 184 172 163 194 185 200 215 192 164 163 200 197 178 196 185 223 191 213 190 189 175 191 191 203 189 176 179 197 188 203 190 189 171 178 191 186 203 190 194 187 208 198 174 193 194 182 182 181 193 196 187 193 176 179 194 185 167 194 224 174 213 197 184 186 194 175 193 225 178 177 186 196 182 184 175 182 199 181 183 205 196 206 193 208 185 181 207 207 159 187 182 183 213 205 173 168 190 213 191 194 203 203 200 189 191 174 189 184 171 206 184 173 168 184 192 176 198 185 184 205 182 207 193 164 207 172 186 239 181 196 197 185 187 199 175 180 169 184 194 178 192 179 184 214 195 190 215 210 178 171 177 210 188 180 226 194 184 172 206 200 208 193 192 175 203 200 180 176 171 189 190 173 182 164 206 191 212 199 180 199 178 199 203 202 192 195 194 192 191 194 199 180 176 189 201 202 195 196 201 172 176 183 190 175 205 211 209 201 221 192 199 188 200 183 197 197 193 206 202 212 184 185 188 180 202 188 200 166 204 196 200 177 164 182 208 195 199 189 188 195 189 193 190 191 187 176 199 203 208 164 214 174 203 197 209 179 195 184 197 192 177 200 209 187 199 187 184 219 198 212 188 166 182 179 192 195 218 212 202 176 200 211 156 164 225 190 196 197 189 202 196 195 188 184 196 178 191 213 213 197 216 195 201 216 206 194 169 183 202 182 201 197 199 177 209 177 173 208 219 217 189 190 204 207 209 184 186 170 182 211 218 213 196 196 189 183 204 197 190 176 210 206 206 185 191 213 191 192 191 177 213 195 204 209 179 215 203 181 164 200 178 207 185 205 183 178 193 175 210 196 229 175 161 192 193 203 195 183 191 216 193 192 217 184 202 220 218 236 190 222 164 174 201 227 181 195 197 182 212 217 196 197 207 192 204 211 201 201 174 183 179 186 197 202 220 210 204 187 171 204 183 200 190 169 205 238 206 202 217 200 205 212 218 213 213 195 204 153 219 217 192 218 205 190 191 176 222 207 217 214 203 203 224 213 204 196 198 187 216 195 179 229 226 206 203 195 191 210 200 211 193 203 204 218 221 203 204 193 189 211 202 204 200 197 186 181 227 198 211 178 206 192 205 194 218 234 186 176 208 205 188 205 199 189 223 214 192 181 222 200 228 216 214 212 211 206 210 196 230 219 184 228 187 209 202 170 219 212 219 247 200 200 199 201 202 206 232 212 205 214 201 206 174 196 216 199 235 210 198 216 199 212 237 208 224 199 202 217 189 217 204 193 204 203 188 205 193 205 225 208 213 192 192 198 194 241 205 209 202 195 212 207 181 228 216 190 209 206 232 199 221 207 220 194 256 177 188 178 203 196 209 198 204 190 192 194 208 226 205 205 224 216 220 194 205 237 183 199 224 216 209 209 189 206 210 238 196 218 206 216 211 207 222 194 212 156 196 203 191 194 179 210 244 231 200 213 213 184 200 220 198 212 204 200 203 195 209 195 213 193 224 200 207 234 198 188 215 193 208 187 191 178 190 196 223 206 203 199 223 197 184 205 197 218 230 215 205 218 209 210 198 202 182 240 203 199 259 230 235 219 211 209 180 192 215 206 209 198 207 222 218 205 215 206 181 213 195 196 228 205 171 197 203 214 203 204 221 188 211 197 224 189 205 208 209 188 197 194 224 181 191 209 220 197 213 217 189 223 212 208 226 212 180 200 200 180 214 188 209 180 212 219 230 196 204 211 199 204 195 218 210 213 204 203 208 223 214 198 202 234 206 213 219 219 218 224 197 228 207 199 206 211 194 195 210 219 202 204 187 209 213 210 191 176 206 229 207 195 193 214 236 206 205 205 194 194 183 211 192 198 198 203 216 206 218 177 186 209 205 201 222 212 234 194 178 217 221 211 185 208 203 186 191 208 217 185 196 204 187 176 206 214 193 212 201 231 196 197 197 195 200 219 220 200 176 189 201 216 197 221 217 232 183 189 209 186 184 204 171 196 203 202 212 232 206 201 216 204 214 218 175 195 193 219 217 181 194 189 196 212 210 216 213 202 212 208 189 205 181 212 203 204 187 192 188 222 225 206 194 177 200 222 238 216 234 206 197 201 208 208 206 167 185 203 201 191 228 184 214 237 203 209 186 214 205 215 206 178 177 210 222 223 207 202 208 213 191 187 188 214 216 176 197 198 203 221 208 174 180 179 202 202 211 192 217 205 217 192 200 190 201 210 196 199 209 215 210 232 202 189 223 188 175 223 205 199 195 195 192 193 217 211 191 195 202 233 213 197 205 201 184 227 187 217 189 203 221 216 210 210 202 202 201 173 218 194 215 219 215 181 215 185 205 186 188 200 208 221 199 165 228 220 200 205 212 219 204 211 244 225 209 215 235 213 214 214 200 224 194 178 200 180 202 225 214 224 230 222 193 222 219 222 220 183 183 220 211 220 184 212 208 215 214 224 223 207 207 202 215 215 220 228 199 202 207 225 208 218 218 189 183 224 193 221 227 209 219 205 238 224 200 194 200 205 193 215 228 227 199 203 195 246 201 187 228 228 192 221 201 214 201 210 221 225 223 257 217 211 223 230 219 215 194 202 213 213 198 214 199 206 240 224 228 238 223 190 220 216 218 213 198 227 228 198 239 246 238 206 206 234 217 236 223 222 200 218 227 197 238 203 202 205 198 238 221 209 196 221 205 216 201 230 215 207 193 213 217 227 229 224 235 223 226 208 215 215 225 221 215 221 217 246 201 220 223 213 215 200 229 222 209 223 200 225 259 227 237 215 210 219 229 226 220 217 216 227 234 213 238 233 211 214 229 207 229 220 219 216 210 232 215 213 238 217 228 230 257 249 219 229 230 222 231 263 199 239 216 213 229 233 262 224 234 241 237 225 213 232 214 234 256 258 243 221 256 251 249 257 240 224 216 267 269 220 219 239 242 241 236 222 265 231 237 236 217 265 277 240 223 261 284 216 267 211 248 265 246 231 235 231 217 247 244 243 233 230 245 248 259 261 239 231 232 265 244 258 249 249 242 238 225 225 243 273 242 235 282 268 249 262 289 260 250 256 237 257 256 230 284 246 264 250 283 241 275 256 231 267 262 289 261 259 278 259 297 241 263 261 284 261 261 236 290 256 266 263 248 251 283 256 298 234 305 301 293 294 302 266 265 272 273 275 293 259 284 247 257 256 300 309 283 302 238 262 249 237 291 293 275 281 287 289 270 284 237 323 279 276 302 272 279 304 311 310 303 325 275 273 289 321 300 291 278 298 250 322 308 291 292 311 290 303 305 282 326 293 290 286 302 338 261 316 315 304 283 272 298 291 291 267 318 311 306 265 250 297 307 306 264 286 310 282 288 292 272 281 306 310 275 268 288 305 305 288 289 295 326 286 321 297 244 306 263 239 272 310 324 275 312 289 322 324 301 279 290 257 303 282 263 291 261 286 260 259 259 299 280 294 310 256 268 284 275 259 264 273 258 261 272 265 285 264 243 276 276 279 257 237 216 284 292 262 261 265 249 306 242 294 278 244 297 257 266 248 276 257 269 246 290 289 247 248 257 248 281 258 247 247 234 249 234 270 222 231 265 265 250 223 242 263 233 233 249 189 233 227 278 229 250 260 249 278 233 205 244 218 238 216 266 220 257 236 238 234 236 262 241 194 241 230 268 244 231 240 228 224 239 261 245 211 238 248 209 234 243 214 235 193 236 234 218 222 200 199 228 203 220 245 231 240 212 227 212 233 212 217 211 202 215 240 198 202 212 205 224 236 210 196 213 232 197 212 228 226 215 204 219 203 222 199 181 196 216 198 212 213 207 216 224 225 217 220 211 199 224 207 216 182 216 209 185 232 185 222 213 218 183 209 196 201 195 202 212 211 209 209 218 207 184 224 197 182 198 192 232 231 192 190 206 179 209 209 220 216 168 197 199 180 197 174 203 190 200 180 194 185 179 194 191 199 202 193 182 211 175 182 188 183 187 189 194 194 193 215 199 203 186 201 158 179 203 186 190 224 191 184 173 174 195 208 198 192 203 203 179 203 206 191 191 188 172 182 180 172 170 167 181 205 175 194 185 179 193 173 190 208 187 186 189 191 197 180 209 173 197 188 175 193 174 194 174 198 190 182 223 185 189 193 197 208 190 170 189 166 192 199 182 192 173 173 175 190 188 212 162 182 187 179 198 206 186 192 209 193 165 180 191 182 170 174 197 168 204 205 163 176 179 208 183 187 186 187 200 177 184 182 179 196 210 181 180 168 185 187 163 175 204 160 194 199 186 181 164 202 183 193 185 170 168 179 184 172 183 175 140 165 150 166 187 182 162 163 174 174 181 178 172 200 176 175 190 174 158 194 158 148 190 178 162 181 174 174 185 186 197 177 182 194 163 169 162 187 173 185 181 172 165 164 178 185 165 161 189 170 152 186 187 184 204 181 182 190 148 168 177 178 191 170 164 190 171 193 169 169 204 161 177 168 161 170 176 181 161 185 151 185 184 165 189 171 153 157 163 159 197 164 180 177 164 168 176 163 179 164 160 182 174 179 168 168 176 169 210 162 180 168 164 172 181 177 172 172 172 155 184 174 148 167 173 155 153 163 186 173 186 172 167 159 170 164 165 183 165 178 187 195 170 181 163 167 191 169 199 162 169 171 189 169 176 174 166 165 159 186 177 171 186 176 159 180 155 184 161 176 163 158 165 169 172 165 164 141 157 167 168 185 169 153 178 169 187 192 179 167 180 169 149 164 182 162 170 143 170 166 176 202 173 199 160 183 174 181 188 194 157 153 164 161 152 165 178 179 167 157 180 169 174 171 161 159 184 180 168 175 163 159 150 152 188 162 184 162 177 173 171 174 166 191 164 157 171 145 169 175 196 172 183 161 177 188 164 179 163 151 155 164 160 151 162 160 172 155 167 142 175 169 149 169 148 174 173 181 150 171 165 214 168 156 162 154 157 176 151 149 150 201 188 162 168 169 158 172 166 180 168 160 177 146 161 126 166 156 168 158 164 157 158 173 178 166 179 168 177 158 156 173 186 169 161 185 187 168 193 158 177 150 146 166 161 166 141 176 172 166 159 159 156 184 176 163 170 164 149 181 185 163 168 155 160 158 184 150 195 158 159 176 145 163 158 144 159 156 152 160 137 153 164 154 176 158 169 162 161 141 175 184 169 169 142 165 206 158 138 171 161 168 173 132 187 153 168 152 172 159 175 196 160 168 156 133 151 157 156 172 148 175 157 158 174 158 148 157 162 176 144 164 190 184 168 145 169 142 170 136 158 158 151 153 147 141 167 132 146 179 165 155 158 149 164 135 161 160 165 164 165 151 162 170 144 170 142 145 136 157 178 154 161 156 178 158 165 183 159 149 177 160 178 174 160 179 203 163 146 170 152 145 156 171 155 176 168 164 147 147 164 156 151 164 160 175 158 140 148 149 158 161 169 170 177 159 168 151 175 170 163 159 176 170 156 151 145 134 146 143 154 174 170 160 174 148 181 152 138 138 149 157 183 152 162 160 175 159 160 155 177 173 143 126 145 140 151 148 160 134 149 157 165 116 160 136 175 147 146 161 140 145 151 168 155 144 147 154 153 141 165 168 161 161 145 175 162 184 150 177 147 130 138 174 145 150 156 145 167 150 153 136 135 169 179 172 151 157 141 155 165 150 172 153 157 171 157 161 163 156 148 137 162 155 157 152 168 185 152 163 174 168 142 161 154 156 148 151 142 168 174 142 152 171 155 150 168 158 170 160 137 147 171 179 158 160 145 165 173 146 122 153 160 198 132 161 149 152 181 187 159 157 144 159 143 156 149 150 153 152 141 144 158 142 155 130 162 155 153 149 138 140 141 140 143 190 149 154 174 168 154 149 155 122 158 149 190 150 158 175 148 157 155 148 148 158 169 163 152 159 168 138 146 138 138 137 160 137 152 136 151 151 171 160 162 161 135 151 145 145 133 124 163 162 140 131 145 165 175 143 142 132 163 161 162 152 147 159 146 116 166 156 136 157 145 164 136 158 119 126 148 139 161 160 155 158 152 165 165 138 170 155 156 190 144 158 136 154 163 133 146 146 160 153 157 144 144 141 151 172 151 151 162 135 170 157 150 151 146 154 143 142 146 134 151 150 142 162 137 146 149 163 156 171 147 145 154 153 158 132 162 150 176 137 167 142 133 155 150 130 146 172 159 146 159 148 157 140 157 142 148 149 144 145 168 166 173 155 154 128 151 130 156 146 167 167 132 155 134 147 155 156 126 131 129 165 149 140 157 149 143 177 151 128 152 152 150 123 146 141 147 149 133 148 145 138 143 158 136 122 153 141 153 146 174 155 147 153 171 137 155 148 170 124 154 144 170 166 124 133 167 140 153 138 146 134 142 127 157 166 143 137 158 153 147 172 148 148 129 158 158 143 140 170 130 159 141 158 142 142 139 155 137 145</intensities>
			</dataPoints>
		</scan>
	</xrdMeasurement>
</xrdMeasurements>
