<?xml version="1.0" encoding="UTF-8"?>
<xrdMeasurements xmlns="http://www.xrdml.com/XRDMeasurement/1.7" xmlns:xsi="http://www.w3.org/2001/XMLSchema-instance" xsi:schemaLocation="http://www.xrdml.com/XRDMeasurement/1.7 http://www.xrdml.com/XRDMeasurement/1.7/XRDMeasurement.xsd" status="Completed">
	<comment>
		<entry>Configuration=Conf. Reflection-transmission spinner, Owner=User-1, Creation date=2/28/2018 8:43:02 AM</entry>
		<entry>Goniometer=Theta/Theta; Minimum step size 2Theta:0.0001; Minimum step size Omega:0.0001</entry>
		<entry>Sample stage=Reflection-transmission spinner; Minimum step size Phi:0.1</entry>
		<entry>Diffractometer system=EMPYREAN</entry>
		<entry>Measurement program=C:\PANalytical\Data Collector\Programs\sample-1.xrdmp, Identifier={BB6687EE-8248-4E06-B0C7-67735DEB5D7E}</entry>
		<entry>Batch program=C:\PANalytical\Data Collector\Programs\P6.xrdmp, Identifier={7BD5230E-A2B7-4B30-ABCA-6DDD4F314F6E}</entry>
	</comment>
	<sample type="To be analyzed">
		<id></id>
		<name></name>
		<preparedBy></preparedBy>
	</sample>
	<xrdMeasurement measurementType="Scan" status="Completed" sampleMode="Reflection">
		<comment>
			<entry>PHD Lower Level = 4.02 (keV), PHD Upper Level = 11.27 (keV)</entry>
		</comment>
		<usedWavelength intended="K-Alpha 1">
			<kAlpha1 unit="Angstrom">1.5405980</kAlpha1>
			<kAlpha2 unit="Angstrom">1.5444260</kAlpha2>
			<kBeta unit="Angstrom">1.3922500</kBeta>
			<ratioKAlpha2KAlpha1>0.5000</ratioKAlpha2KAlpha1>
		</usedWavelength>
		<incidentBeamPath>
			<radius unit="mm">240.00</radius>
			<xRayTube id="1010048" name="Empyrean Cu LFF HR (9430 033 7310x) DK427586">
				<tension unit="kV">40.0</tension>
				<current unit="mA">40.0</current>
				<anodeMaterial>Cu</anodeMaterial>
				<focus type="Line">
					<length unit="mm">12.0</length>
					<width unit="mm">0.4</width>
					<takeOffAngle unit="deg">4.4</takeOffAngle>
				</focus>
			</xRayTube>
			<xRayMirror id="27020009" name="Bragg-Brentano HD" hybrid="false">
				<crystal type="Graded" shape="Flat">BB/HD</crystal>
				<acceptanceAngle unit="deg">0.800</acceptanceAngle>
				<length unit="mm">55.3</length>
			</xRayMirror>
			<sollerSlit id="21010002" name="Soller slits 0.04 rad.">
				<opening unit="rad">0.0400</opening>
			</sollerSlit>
			<mask id="22030009" name="Fixed mask 10 mm">
				<width unit="mm">10.00</width>
			</mask>
			<antiScatterSlit id="22010003" name="Fixed slit 1°" xsi:type="fixedAntiScatterSlitType">
				<height unit="mm">1.52</height>
			</antiScatterSlit>
			<divergenceSlit id="22010005" name="Fixed slit 1/4°" xsi:type="fixedDivergenceSlitType">
				<distanceToSample unit="mm">140.00</distanceToSample>
				<height unit="mm">0.38</height>
			</divergenceSlit>
		</incidentBeamPath>
		<diffractedBeamPath>
			<radius unit="mm">240.00</radius>
			<antiScatterSlit id="22090010" name="AS slit 8.0 mm (PIXcel)" xsi:type="fixedAntiScatterSlitType">
				<height unit="mm">8.00</height>
			</antiScatterSlit>
			<sollerSlit id="21020003" name="Large Soller slits 0.04 rad.">
				<opening unit="rad">0.0400</opening>
			</sollerSlit>
			<detector id="7010019" name="PIXcel1D-Medipix3 detector" xsi:type="rtmsDetectorType">
				<phd unit="%">
					<lowerLevel>25.0</lowerLevel>
					<upperLevel>70.0</upperLevel>
				</phd>
				<mode>Scanning</mode>
				<activeLength unit="deg">3.3482</activeLength>
			</detector>
		</diffractedBeamPath>
		<scan appendNumber="0" mode="Continuous" scanAxis="Gonio" status="Completed">
			<header>
				<startTimeStamp>2025-12-26T13:38:14+08:00</startTimeStamp>
				<endTimeStamp>2025-12-26T13:49:46+08:00</endTimeStamp>
				<author>
					<name>User</name>
				</author>
				<source>
					<applicationSoftware version="5.5a">Data Collector</applicationSoftware>
					<instrumentControlSoftware version="7.9j 20171025">EMPYREAN</instrumentControlSoftware>
					<instrumentID>0000000011214615</instrumentID>
				</source>
			</header>
			<dataPoints>
				<positions axis="2Theta" unit="deg">
					<startPosition>6.00558257</startPosition>
					<endPosition>75.99655438</endPosition>
				</positions>
				<positions axis="Omega" unit="deg">
					<startPosition>3.00279129</startPosition>
					<endPosition>37.99827719</endPosition>
				</positions>
				<positions axis="Phi" unit="deg">
					<commonPosition>0.0</commonPosition>
				</positions>
				<commonCountingTime unit="seconds">13.770</commonCountingTime>
				<intensities unit="counts">582 597 571 550 611 603 559 614 588 549 592 559 584 574 601 574 572 601 568 538 569 593 560 577 563 546 565 578 610 587 570 539 589 537 531 575 561 534 561 576 524 562 571 590 555 569 578 586 554 542 584 560 566 592 587 520 575 602 550 537 546 524 545 552 587 548 564 529 525 563 573 577 586 563 560 543 542 520 552 589 573 582 550 512 531 525 560 567 555 567 531 570 556 544 533 567 543 527 571 592 526 525 511 586 536 602 540 545 524 568 528 526 548 559 557 508 560 544 529 526 553 557 578 535 540 502 476 567 510 533 542 561 544 529 534 547 527 519 514 505 522 551 561 538 507 545 535 525 515 555 494 532 546 537 537 533 571 499 616 520 544 541 549 554 514 541 500 580 498 510 546 502 555 493 538 528 555 468 543 526 518 546 502 539 519 540 524 526 554 522 504 480 565 539 511 521 516 514 567 513 534 543 522 532 522 510 469 542 518 546 479 515 495 540 534 517 478 542 508 538 538 509 504 489 506 545 516 519 488 526 499 502 556 520 545 516 537 544 465 522 530 478 513 486 486 494 487 533 522 521 519 510 483 494 530 526 498 533 536 518 490 540 498 535 493 527 497 525 550 503 517 525 514 531 489 488 488 479 492 510 550 489 532 540 487 543 521 472 502 534 527 503 507 501 470 494 515 488 478 494 505 521 496 516 494 527 487 523 498 514 519 478 476 493 516 480 508 489 497 526 499 499 518 497 493 465 485 519 505 527 512 491 504 503 531 494 519 512 491 524 500 513 530 496 510 504 499 495 514 512 490 488 457 498 519 449 480 470 518 508 519 513 488 485 467 511 496 501 475 458 489 493 484 503 486 509 499 505 477 502 461 521 494 485 483 510 524 492 499 523 495 502 502 482 468 508 539 519 483 509 451 440 480 526 465 497 472 501 497 498 456 496 473 484 469 497 471 514 546 460 496 511 450 449 503 441 440 500 466 467 480 495 483 536 486 497 490 459 508 435 486 470 468 492 506 488 502 500 495 494 452 485 479 491 479 462 465 466 477 491 461 438 481 478 491 511 484 462 477 503 479 455 455 513 472 434 439 491 457 450 477 495 539 454 498 459 470 438 484 510 500 506 485 496 433 476 446 474 479 480 489 484 484 474 459 469 462 466 493 436 496 496 447 494 451 440 478 523 466 444 472 491 466 479 444 461 465 474 438 472 484 508 460 474 467 456 466 464 469 446 466 464 446 473 456 472 481 444 486 446 511 468 467 470 464 449 444 479 515 470 499 436 487 466 500 449 477 472 470 481 458 418 448 470 498 488 442 479 465 511 454 460 485 460 489 490 439 441 481 469 466 468 464 409 441 459 429 476 449 389 465 451 469 467 475 468 448 495 426 418 432 480 456 466 444 416 424 445 475 449 435 461 433 450 429 421 473 422 472 455 406 480 449 489 477 447 456 467 450 433 504 443 495 438 449 437 450 457 393 438 477 480 458 443 451 456 433 449 458 431 471 451 430 471 434 461 435 475 443 470 441 439 443 476 406 428 431 457 468 462 440 467 422 480 419 425 462 454 401 434 433 418 417 438 446 416 416 438 429 448 441 449 433 457 462 456 434 472 416 441 396 427 431 449 408 415 407 420 466 436 480 470 453 455 439 453 417 447 450 425 426 418 433 412 421 426 418 448 432 474 452 442 428 451 433 419 452 417 399 413 414 442 457 450 430 413 434 426 450 428 459 402 423 440 391 448 424 404 411 405 416 415 389 439 398 416 446 442 415 390 420 456 412 449 446 386 430 456 431 430 397 425 386 439 460 374 408 412 440 447 397 422 431 435 401 413 428 420 429 393 419 422 434 449 408 396 441 479 419 425 410 380 422 440 411 380 453 441 397 405 396 382 438 397 448 433 419 446 415 376 383 394 422 418 403 410 409 384 412 404 421 403 393 362 396 378 414 403 440 415 410 382 401 412 426 404 392 417 380 433 338 399 430 398 389 407 418 416 432 408 407 410 424 431 410 447 404 369 395 410 428 413 376 369 427 403 383 389 421 429 405 413 395 416 415 380 400 381 424 385 437 416 352 403 415 392 416 370 388 387 387 430 399 417 380 423 405 386 397 431 396 388 364 436 368 438 401 388 374 401 397 375 386 386 409 388 444 408 394 371 405 411 391 427 390 380 385 394 372 393 385 376 378 354 369 392 400 373 368 405 383 417 388 423 400 383 407 385 409 374 369 416 404 395 388 391 408 387 396 369 423 386 366 384 393 358 407 404 383 359 395 394 392 402 357 400 401 351 397 388 436 373 411 342 364 393 360 348 364 355 382 351 386 392 374 377 381 387 349 353 389 388 330 380 366 375 362 372 371 350 369 368 367 383 357 368 393 369 350 378 356 396 393 416 342 359 380 331 387 365 364 405 371 383 362 397 355 335 366 369 392 380 352 368 376 363 354 364 374 375 336 330 350 354 397 356 386 356 379 347 364 338 373 352 385 345 406 356 369 378 375 373 353 388 348 338 385 390 341 379 353 355 376 359 366 358 336 349 328 388 352 342 350 370 354 347 364 363 362 337 347 369 354 373 364 353 358 348 344 362 356 378 362 363 346 324 339 346 375 355 357 350 352 343 350 362 318 351 347 389 338 345 379 332 331 343 387 346 366 350 326 371 368 339 360 389 376 357 339 378 354 326 383 316 315 367 325 374 365 344 351 368 328 359 364 350 323 322 372 356 351 350 313 380 337 336 304 352 350 341 344 363 363 352 348 347 364 352 321 329 343 351 346 290 355 333 343 358 357 338 365 319 317 357 333 338 325 358 318 332 296 356 327 352 338 322 320 357 319 351 313 323 352 322 346 339 309 332 353 333 333 323 366 312 335 303 333 362 324 332 331 342 343 337 345 325 341 320 341 309 328 344 339 314 336 340 344 329 324 301 348 360 352 348 363 375 343 342 315 367 340 329 352 326 337 338 355 346 354 314 370 333 352 303 351 353 328 312 318 372 322 337 335 319 363 330 315 341 322 354 355 351 344 352 355 329 347 328 336 347 334 337 320 356 366 341 354 315 357 334 332 345 333 318 338 334 326 353 318 343 314 324 339 318 341 322 372 325 337 349 324 337 333 305 338 345 344 308 306 341 339 340 363 333 315 344 319 329 331 343 312 348 344 331 331 319 315 312 353 330 342 291 308 315 334 283 359 330 311 342 305 350 357 330 346 321 339 321 306 336 349 345 320 310 365 365 351 313 373 329 352 318 284 306 356 344 320 323 345 339 322 343 325 330 339 331 307 318 309 323 343 298 344 314 324 334 327 360 336 312 348 355 295 282 306 325 320 335 329 305 315 336 322 356 329 370 329 344 346 321 307 347 320 342 317 331 326 342 323 339 336 299 322 298 300 304 313 354 307 307 320 326 309 333 333 322 312 304 305 323 317 346 289 304 290 322 321 349 315 340 281 335 337 316 357 300 323 320 311 357 310 330 313 325 299 335 328 336 323 316 326 299 318 297 344 299 301 346 323 343 346 315 311 332 338 333 342 334 354 301 330 332 302 356 293 298 331 340 319 334 322 330 323 320 324 333 326 332 327 338 332 312 283 339 287 332 304 334 349 292 307 319 306 326 343 346 320 335 315 340 329 323 318 312 327 358 340 292 306 319 307 335 320 322 308 313 328 334 339 296 334 355 322 329 373 366 342 320 343 297 334 319 290 312 294 317 341 332 332 316 340 278 332 312 343 290 331 309 308 354 353 305 302 325 352 336 336 352 301 301 333 305 320 344 329 320 344 315 330 319 363 348 305 327 359 316 341 349 333 309 335 321 323 341 328 322 328 311 303 352 346 342 287 320 350 334 335 309 327 315 302 312 339 319 331 317 296 335 322 293 304 348 306 306 285 317 317 341 328 358 313 328 330 287 356 313 331 313 326 307 322 350 326 324 331 313 311 311 294 334 343 327 342 366 349 317 307 359 332 327 321 319 352 321 309 312 314 329 325 323 338 285 287 304 294 333 319 320 352 330 357 314 282 312 301 306 343 360 324 329 330 352 330 354 331 310 328 302 326 329 319 338 318 302 335 367 324 312 300 338 315 301 290 294 305 319 329 311 294 335 332 331 326 322 312 343 327 323 351 332 329 323 335 320 314 314 329 337 350 341 338 318 334 347 359 311 343 347 323 309 328 318 319 291 337 327 328 343 327 346 329 372 340 334 334 321 308 364 348 337 340 327 325 332 314 322 328 312 343 372 347 338 343 323 335 296 330 347 311 364 336 330 332 304 361 322 327 390 359 333 317 340 342 314 322 340 311 313 360 330 294 339 348 301 331 304 299 308 352 345 355 326 338 313 364 333 327 330 364 331 364 316 314 338 371 320 350 359 326 350 351 289 341 339 338 348 331 346 314 333 313 347 338 371 332 341 336 355 352 380 317 367 350 347 339 322 329 361 324 364 302 354 307 366 319 332 348 353 345 345 315 340 325 356 344 319 317 350 318 343 312 369 307 354 351 337 323 361 338 363 366 345 314 379 327 346 341 357 338 292 333 343 341 375 351 370 349 311 302 317 339 336 328 343 349 341 392 313 326 354 350 322 330 341 345 323 348 348 359 360 364 315 348 333 341 313 345 360 347 352 334 336 356 340 295 337 350 348 337 321 392 348 353 400 322 338 363 351 350 363 332 374 356 369 340 352 355 331 364 343 333 350 344 333 342 324 355 320 367 374 360 359 325 365 364 326 327 347 383 371 351 341 297 347 326 386 386 353 351 346 350 377 328 321 388 356 354 356 348 343 377 349 321 327 331 364 361 327 354 328 408 335 358 363 363 361 357 397 336 367 368 359 315 337 366 378 342 355 359 345 370 345 357 364 375 372 385 330 370 357 333 355 362 343 353 347 334 374 300 347 376 369 362 366 383 352 350 369 344 354 330 368 358 357 368 380 381 330 394 337 365 344 353 302 332 369 366 352 395 339 352 338 358 357 374 332 387 358 352 378 347 323 335 359 365 371 375 375 359 381 364 360 348 344 357 353 364 358 354 357 325 364 397 348 365 334 347 348 369 354 332 381 383 379 370 350 374 337 368 337 379 356 372 398 339 382 368 322 403 349 365 355 373 364 348 337 342 384 350 336 363 333 361 348 369 360 392 356 356 333 379 388 351 384 347 399 361 354 395 379 357 333 337 355 352 363 378 326 375 378 379 341 356 379 400 374 350 354 384 360 333 359 380 330 338 363 346 362 339 352 358 339 384 374 353 368 377 406 385 379 349 381 401 374 404 353 351 394 378 359 399 373 329 361 367 376 370 382 353 364 361 333 395 346 380 366 365 344 336 384 344 370 374 346 379 347 360 351 350 361 360 371 364 380 359 367 354 381 365 384 370 342 371 348 354 346 349 357 417 400 411 390 350 385 366 385 383 363 385 356 353 350 368 371 345 366 378 375 369 389 364 385 360 388 410 357 371 369 380 357 361 363 381 380 378 349 367 351 356 363 373 348 365 350 354 363 361 399 357 342 371 365 360 369 361 354 356 377 383 394 357 373 349 395 384 357 365 357 359 359 379 382 351 335 336 368 389 358 379 365 371 365 366 361 373 400 372 349 387 373 368 367 329 364 327 320 361 347 350 357 347 353 328 372 366 328 368 358 372 351 379 353 389 359 325 357 348 378 340 366 347 383 381 356 370 396 362 350 357 359 376 378 339 403 405 364 362 372 352 372 357 378 368 372 351 343 355 341 382 368 346 376 350 334 344 363 357 362 379 369 353 352 360 343 332 370 347 353 369 392 361 359 355 359 350 392 367 387 395 355 362 388 346 368 349 363 365 360 378 359 353 371 377 359 373 370 373 354 359 363 359 343 345 353 417 373 347 342 348 344 347 378 369 382 397 364 350 368 359 351 331 329 350 344 393 359 338 381 326 348 364 354 382 325 380 366 332 402 305 354 366 362 362 344 339 379 370 375 382 374 363 340 363 392 387 365 383 357 372 341 349 353 382 400 354 362 365 351 371 364 346 373 342 336 352 339 302 377 370 371 338 358 357 368 369 349 359 329 345 379 361 388 367 335 355 391 344 313 337 354 369 345 368 354 377 335 368 357 351 357 356 372 365 362 315 375 354 372 348 398 347 341 354 339 345 352 395 316 348 354 408 338 359 361 362 370 337 371 350 351 328 368 356 360 341 341 359 377 348 360 379 356 365 361 352 362 362 350 339 324 342 357 331 337 338 354 352 363 341 338 356 350 312 381 350 355 329 378 368 354 334 359 337 345 334 360 361 384 376 335 352 356 351 354 334 344 344 370 352 315 366 344 414 365 368 364 345 349 383 354 395 359 381 357 363 362 362 344 306 325 376 334 370 370 357 359 356 356 352 356 336 321 347 352 381 341 381 329 317 380 351 383 336 346 356 361 352 338 334 346 345 313 364 367 354 321 329 344 360 372 378 343 345 330 356 328 355 331 310 340 337 343 355 368 340 368 358 375 326 358 350 308 343 342 375 355 362 357 323 329 335 338 367 378 323 341 345 339 342 350 347 331 306 331 350 322 357 339 364 354 337 359 339 315 330 329 350 356 326 374 349 347 339 353 337 363 366 354 354 354 379 355 324 322 366 348 324 339 345 345 350 341 340 305 335 355 354 324 352 376 369 330 324 362 332 335 352 316 359 349 330 355 347 339 329 301 361 350 328 338 377 372 361 355 318 345 365 349 364 343 340 341 362 371 335 322 352 365 339 365 347 361 331 319 361 338 362 372 334 323 330 300 340 351 324 341 384 341 344 315 357 331 316 360 357 336 344 355 337 335 363 334 343 381 361 319 365 344 318 323 341 345 325 340 329 361 349 349 370 327 339 351 346 345 351 317 323 381 355 352 332 354 357 340 333 357 332 328 337 336 342 342 344 317 332 304 340 344 341 326 358 375 353 331 329 335 331 346 337 373 297 340 354 319 329 373 325 327 332 347 302 368 359 355 360 356 356 335 357 336 347 354 357 364 319 353 320 351 334 363 309 317 364 323 363 332 351 347 363 348 334 331 332 335 330 316 366 352 307 336 329 339 328 334 323 312 325 329 319 318 304 356 338 314 354 315 339 374 365 346 338 298 363 337 324 321 342 318 351 313 338 340 309 305 331 330 323 363 350 333 330 337 356 341 352 333 330 316 348 342 330 341 293 335 337 340 324 370 301 339 333 329 333 354 313 324 343 313 296 338 302 333 317 341 336 349 347 311 353 323 341 340 347 319 359 335 313 320 321 331 321 347 321 357 324 328 344 362 352 351 319 338 359 321 342 322 315 342 336 321 293 318 320 328 338 357 350 325 310 305 323 340 329 323 325 356 324 323 297 347 324 335 299 338 301 317 337 363 374 330 342 363 325 301 332 357 355 355 310 336 339 339 339 316 315 307 342 307 326 294 322 319 354 361 327 335 329 302 302 311 311 295 334 344 335 345 352 310 296 327 326 302 321 326 321 346 328 335 332 304 307 316 314 355 312 312 328 323 321 341 354 335 317 351 319 299 328 327 332 290 337 341 295 338 329 346 320 278 311 325 338 328 331 316 383 329 310 323 325 353 302 329 327 361 311 320 326 285 327 334 301 335 307 352 323 339 313 317 332 355 304 355 319 296 338 330 318 325 324 338 318 306 340 298 328 324 337 336 328 314 326 320 326 354 344 349 312 329 316 325 368 304 327 321 286 350 309 335 311 329 337 306 335 338 329 329 310 315 350 331 326 335 301 341 319 311 317 304 330 353 328 356 314 317 270 339 335 295 300 307 346 325 338 322 329 321 314 342 353 337 330 323 329 338 322 341 312 326 309 310 328 308 321 330 335 329 323 313 311 313 318 329 309 361 321 302 335 324 322 333 301 328 288 316 313 343 328 305 289 310 303 305 336 306 301 303 316 332 333 352 332 310 367 334 324 324 310 299 311 345 340 323 309 306 318 330 305 290 317 336 296 333 346 321 317 308 315 328 305 324 333 346 304 325 322 302 290 316 302 349 328 342 321 334 322 320 308 309 308 301 299 317 317 308 308 312 318 324 331 343 322 343 327 321 321 316 336 359 316 337 326 318 310 296 317 310 344 325 345 294 331 303 309 293 318 343 330 299 325 324 343 357 328 312 326 352 344 295 302 329 351 338 352 290 291 312 321 321 314 308 328 294 342 338 327 313 275 320 330 338 274 291 332 303 320 305 342 321 327 362 327 351 346 296 342 342 278 299 313 321 293 317 330 348 326 299 310 333 356 306 322 319 292 330 324 319 285 355 307 336 341 322 318 293 320 299 327 305 320 337 293 314 303 313 346 300 338 325 328 345 342 314 302 277 322 308 318 314 313 309 327 335 329 331 311 345 330 307 320 311 284 318 321 331 328 332 323 289 312 302 330 314 358 307 321 330 319 316 357 284 327 313 346 318 329 312 336 290 282 337 325 321 346 354 323 302 304 298 305 329 313 325 308 303 291 326 304 315 305 319 327 299 334 305 324 273 297 320 304 317 307 308 311 308 321 288 326 328 345 328 328 334 324 306 300 322 309 301 286 286 295 326 303 325 311 310 301 327 308 310 292 309 305 339 325 319 295 320 293 322 332 304 282 339 331 314 306 299 342 314 327 314 331 312 295 288 292 333 335 295 334 343 307 306 294 351 284 306 323 312 312 278 312 331 312 308 331 302 287 319 324 331 289 324 314 292 332 327 334 294 336 336 313 312 289 333 295 316 335 293 319 338 329 323 329 297 304 313 332 305 320 308 334 335 274 338 303 303 284 297 333 331 317 334 310 335 304 303 298 303 348 353 322 345 338 308 317 310 332 333 328 308 299 313 308 303 280 321 306 301 327 316 338 300 326 307 325 293 286 316 340 337 342 311 280 284 299 303 304 344 325 283 318 303 320 303 312 299 290 330 338 297 315 334 326 316 308 314 313 325 290 305 343 336 285 312 279 288 320 338 291 317 313 325 320 311 362 322 339 327 285 304 298 318 353 297 313 287 306 309 334 347 306 332 278 326 290 318 344 295 337 293 287 331 289 342 317 332 323 344 286 308 336 304 324 333 364 291 323 300 350 286 333 295 346 315 315 301 320 316 328 308 305 297 325 322 335 350 328 306 336 310 296 331 304 321 308 325 357 305 300 347 292 319 304 325 324 322 313 303 312 296 337 282 276 325 317 304 334 358 330 319 320 311 336 303 331 293 349 331 310 337 328 299 281 305 313 316 346 323 314 269 278 295 290 332 300 332 340 316 340 284 316 307 306 308 289 306 286 317 323 281 287 277 300 323 328 333 273 336 290 266 292 325 320 299 315 298 318 314 263 345 321 316 303 279 295 300 299 318 304 299 294 320 303 295 299 292 289 324 268 303 301 324 329 310 293 300 309 308 302 303 332 288 312 300 297 314 321 302 333 285 328 334 293 313 290 303 318 283 301 308 324 282 295 286 325 298 281 268 287 307 289 297 318 281 308 323 326 314 275 307 304 317 286 324 322 312 324 275 301 292 308 304 325 324 302 288 336 289 293 295 337 282 307 325 299 273 293 310 292 296 297 312 279 324 303 305 306 289 306 307 303 291 318 256 304 316 306 310 316 349 293 304 282 321 318 280 311 297 297 305 334 278 305 314 309 332 306 294 295 312 310 285 295 308 297 288 289 297 278 313 297 297 293 271 292 274 313 273 319 287 311 290 296 289 298 315 278 285 272 320 302 281 285 317 315 294 308 297 307 300 311 295 301 296 321 299 290 300 306 285 294 289 309 291 290 288 283 274 298 289 286 313 323 318 309 279 304 327 340 293 286 287 301 291 296 299 316 272 287 339 290 302 292 289 298 286 327 326 272 316 317 298 280 303 296 282 279 320 300 336 302 296 291 302 287 319 322 290 317 290 285 286 277 301 290 306 325 302 324 310 327 287 299 322 282 266 278 279 290 277 297 323 292 283 274 303 300 300 292 300 275 293 284 277 341 322 300 266 281 293 279 294 311 286 317 325 295 293 327 298 296 288 285 289 316 274 274 328 290 267 313 328 298 286 317 299 326 288 277 323 292 283 297 325 291 319 305 301 324 293 286 298 307 301 295 293 311 305 307 273 293 324 336 306 288 295 322 305 319 313 303 303 301 288 309 297 309 312 290 294 284 308 322 283 300 326 304 283 295 299 259 299 311 250 243 302 293 305 310 338 302 303 316 266 267 297 312 278 315 301 305 303 321 303 295 292 295 298 311 298 297 285 314 330 280 312 320 307 290 286 302 298 305 282 263 311 307 284 283 281 295 304 291 305 288 311 312 279 297 307 295 292 311 301 280 291 341 298 308 299 283 298 299 309 316 290 304 333 298 319 293 298 290 291 297 299 301 324 314 301 282 297 271 317 310 284 300 312 292 300 287 309 298 309 324 277 307 310 320 324 305 323 283 325 324 307 282 293 283 307 316 307 283 292 307 301 319 311 281 325 316 341 314 318 321 314 295 317 299 306 318 323 307 279 317 326 304 298 312 296 316 286 283 316 308 323 295 329 304 328 326 327 309 306 296 260 305 293 289 289 320 308 322 268 298 288 342 313 300 288 318 310 340 302 292 349 328 318 317 314 318 320 324 304 267 278 312 330 307 318 317 334 316 338 291 308 311 353 336 319 334 331 320 297 340 305 272 316 325 345 334 330 301 320 301 302 295 306 306 308 291 331 352 328 296 316 314 289 309 296 321 332 317 327 317 337 307 274 334 320 307 296 303 313 313 276 352 289 265 316 287 341 311 314 294 312 323 322 312 342 311 291 278 331 318 291 339 315 306 320 286 314 326 352 298 310 313 336 299 329 338 369 324 324 314 284 288 335 312 328 323 320 299 316 319 339 307 328 319 312 285 344 303 323 298 302 301 321 317 298 323 324 352 334 307 309 334 282 350 280 277 332 331 339 319 270 283 318 316 305 310 293 334 291 304 282 301 320 300 337 304 303 319 300 302 309 285 290 308 323 330 331 290 326 341 315 333 311 318 295 284 303 315 304 312 245 318 288 298 296 308 308 293 261 272 302 299 316 308 305 293 306 269 304 269 287 300 294 312 295 287 308 284 287 268 288 294 329 290 292 306 283 279 280 283 316 276 302 299 248 293 265 304 277 269 292 271 277 277 274 272 283 269 304 302 306 281 267 300 248 267 276 271 281 285 297 303 259 288 274 291 328 247 280 287 274 230 301 263 294 276 271 301 295 260 287 262 283 293 261 283 267 266 259 293 281 265 268 267 285 242 268 258 260 238 308 256 233 279 265 242 257 281 284 278 265 285 242 299 275 268 264 258 267 264 266 258 276 272 257 271 268 234 263 304 232 236 277 263 249 258 282 267 280 264 235 246 260 258 274 264 262 263 281 247 267 249 300 274 256 255 261 259 278 250 239 277 266 274 247 285 264 264 264 283 290 282 277 279 269 280 248 268 269 248 266 240 270 243 215 243 293 270 257 270 247 259 286 249 279 248 284 277 243 246 256 278 248 272 272 304 231 230 278 247 259 244 245 294 246 257 226 240 300 285 294 260 264 287 278 246 228 269 271 270 269 259 283 261 257 269 293 270 249 256 265 261 250 241 272 258 283 268 284 249 305 249 243 295 270 280 288 277 301 248 284 279 277 257 262 289 277 245 239 247 261 248 262 281 286 261 298 262 276 271 274 308 274 283 271 228 246 299 286 282 256 259 270 282 271 267 274 290 241 263 302 237 276 238 250 301 247 267 265 235 242 264 256 220 260 277 264 256 248 261 226 266 232 276 261 248 269 237 225 276 249 276 259 240 243 276 257 227 222 237 229 275 260 239 263 288 231 264 268 272 257 232 262 266 224 247 234 243 258 275 248 221 244 280 233 301 231 260 213 239 273 241 267 264 241 245 222 257 241 246 249 264 245 262 261 247 243 240 243 229 213 277 236 246 241 243 231 250 216 270 258 225 245 240 204 241 233 230 241 229 227 230 236 257 238 240 257 256 264 247 245 263 235 234 259 285 236 223 238 246 235 207 259 227 239 224 219 244 236 277 214 218 258 242 205 235 223 223 234 259 270 235 250 220 240 228 229 236 232 236 212 248 213 243 224 234 240 241 221 251 240 220 195 238 217 249 213 238 227 241 257 229 239 230 206 230 243 228 223 241 226 238 207 248 224 233 242 224 233 215 203 208 235 260 229 229 263 226 229 241 217 228 232 244 214 218 225 202 239 214 248 236 213 225 256 226 233 246 199 263 217 245 243 239 232 196 211 245 238 229 212 213 243 219 267 210 221 210 216 209 213 230 191 234 236 241 230 237 215 243 223 228 230 213 213 236 213 220 224 242 221 239 201 213 234 256 214 225 242 191 235 208 232 207 217 216 208 242 232 212 212 262 207 228 223 218 249 231 236 240 208 212 214 193 229 235 247 215 238 205 200 213 236 237 223 234 213 214 193 220 210 235 232 236 228 226 230 222 231 235 238 197 204 215 209 205 227 197 223 230 209 223 199 234 214 217 222 220 216 206 212 226 194 189 219 246 239 216 228 237 234 208 207 215 224 214 222 199 229 229 234 199 219 215 203 203 234 220 207 209 243 220 206 233 228 221 230 231 235 224 203 220 212 211 245 192 210 221 228 230 240 213 214 244 217 208 220 222 217 197 219 208 205 222 198 201 214 210 205 210 195 243 191 203 207 215 240 217 225 222 236 229 239 206 219 229 220 223 204 248 225 196 219 232 214 230 235 220 223 210 235 216 204 200 226 218 230 224 234 218 200 220 226 234 193 212 236 221 202 196 231 215 231 214 197 222 209 215 212 217 221 200 228 218 214 213 222 196 208 218 214 238 228 226 218 233 233 249 215 212 216 223 232 213 209 230 205 242 249 192 218 226 222 211 228 218 213 218 243 225 230 219 237 236 211 238 229 221 207 239 225 200 207 214 230 223 248 238 243 224 232 215 259 216 248 230 223 233 233 222 208 257 221 249 225 214 209 234 231 236 206 203 224 246 228 228 233 221 233 223 236 234 223 212 219 222 217 223 227 239 207 212 209 249 230 203 231 243 246 204 250 224 224 218 223 208 210 225 220 240 224 212 213 237 231 214 231 194 235 258 223 222 227 237 230 250 227 230 226 221 236 220 239 221 202 227 223 235 232 273 225 241 233 233 216 236 230 225 232 212 220 228 274 216 268 244 207 238 201 225 225 208 259 208 248 263 233 275 243 238 224 239 243 262 256 220 232 216 265 248 247 229 225 256 275 237 239 246 275 238 272 279 239 260 296 256 291 275 290 263 303 283 282 280 247 276 310 279 306 322 270 288 280 305 295 291 306 276 331 307 288 290 301 320 321 298 294 336 278 281 299 278 284 264 268 317 270 287 288 282 271 271 267 259 303 292 242 265 257 283 290 261 221 286 266 271 265 234 291 282 277 239 241 249 261 260 248 270 266 237 281 292 219 232 258 296 292 226 256 249 236 244 233 268 251 264 280 256 289 261 272 284 276 264 265 276 237 257 234 297 285 277 265 282 260 264 287 271 268 286 234 222 272 259 262 261 260 288 247 306 256 288 260 296 296 296 271 274 272 266 297 259 247 287 267 276 262 304 286 281 298 304 261 273 273 273 272 247 283 289 315 269 279 287 289 301 280 286 294 271 293 325 282 278 265 307 297 278 299 294 280 278 294 297 281 261 341 299 290 306 289 321 310 290 287 328 297 312 296 323 309 284 309 296 329 296 304 292 251 331 280 311 279 290 300 288 285 267 337 300 314 302 285 315 317 299 307 279 301 285 264 285 306 314 277 282 320 301 316 271 315 301 293 319 301 323 273 291 303 288 315 320 295 279 322 302 320 286 306 286 288 272 294 295 291 283 271 306 299 302 293 295 290 295 281 257 276 309 296 273 279 302 316 311 323 240 276 298 295 295 281 273 292 290 295 263 322 287 271 273 271 284 267 270 246 256 310 267 256 307 247 233 269 289 278 270 270 278 222 274 245 277 257 262 234 246 284 235 279 279 276 270 278 278 232 259 263 235 276 248 245 246 232 249 248 264 280 223 241 269 246 225 264 241 267 216 228 243 242 230 231 272 257 248 272 262 245 229 239 227 216 209 237 220 233 233 229 245 225 208 256 234 216 236 222 218 232 213 236 250 220 221 224 241 249 229 221 212 192 241 239 200 227 222 240 229 237 199 193 196 232 218 197 218 199 226 205 214 215 210 209 178 205 201 261 213 214 204 245 213 204 187 219 240 205 210 207 201 205 200 216 205 185 218 219 220 193 202 205 202 205 222 199 214 206 215 187 216 198 225 200 228 221 216 199 174 203 212 240 222 210 206 200 208 217 228 219 210 216 206 201 217 207 182 213 227 188 173 205 218 219 211 206 207 187 210 214 211 211 192 188 177 186 185 190 191 229 179 179 172 193 213 216 223 197 244 186 219 204 181 230 198 205 202 207 208 212 171 177 196 194 198 188 203 168 198 201 197 220 204 208 208 211 204 203 190 197 182 201 182 179 196 184 192 217 180 198 196 208 206 199 175 202 185 208 197 193 191 188 175 171 202 194 196 198 202 196 198 194 202 183 224 195 189 191 197 203 178 181 178 178 176 192 197 196 184 215 192 171 191 181 193 164 197 176 192 208 186 203 193 180 185 171 189 188 170 206 201 193 196 186 171 202 194 202 200 210 179 180 198 193 185 193 188 190 196 203 172 198 184 184 176 186 178 193 189 180 192 187 191 186 170 175 189 183 189 181 187 198 189 200 164 169 189 181 186 173 191 181 202 200 182 162 173 179 172 185 203 186 205 199 180 211 177 188 209 186 167 187 160 203 170 184 184 171 181 187 202 166 174 181 172 194 190 214 204 190 192 185 172 179 189 192 174 164 190 196 182 188 193 190 184 208 190 193 189 150 187 175 181 170 171 198 172 195 192 179 194 201 218 178 188 177 181 182 177 183 181 173 181 180 184 173 180 206 187 176 156 190 177 187 157 161 179 179 185 186 191 186 166 178 186 177 170 183 201 189 183 169 164 192 166 171 181 169 159 170 182 182 186 176 209 175 170 176 199 162 192 189 178 197 176 198 182 166 170 209 152 163 194 162 181 187 187 196 147 159 181 172 170 199 162 171 171 180 161 180 191 176 188 186 185 202 187 173 178 180 185 159 177 152 153 186 182 199 187 170 169 178 164 171 180 168 181 185 200 173 187 168 215 177 178 189 191 148 180 136 190 183 181 180 168 183 197 150 172 166 166 152 167 168 203 189 168 196 189 183 179 159 177 184 164 189 150 202 183 199 196 199 177 170 179 190 177 182 188 188 174 173 176 157 170 169 188 145 170 182 137 201 182 186 192 204 150 186 185 150 155 162 165 172 198 174 185 198 193 193 184 172 180 157 161 161 156 171 169 166 173 185 161 197 184 196 159 201 165 174 174 168 184 191 176 168 166 179 177 167 161 180 189 181 182 189 187 174 184 161 173 185 177 174 162 172 182 159 164 181 184 150 155 176 197 178 192 166 151 163 187 191 185 172 182 180 178 165 157 168 172 173 187 191 175 176 183 156 169 175 186 172 178 176 173 170 190 158 192 190 194 176 168 180 189 188 193 161 161 181 174 185 177 170 175 180 154 194 168 163 179 157 177 163 161 177 155 163 154 192 176 205 183 154 192 178 151 185 168 159 190 182 170 164 170 157 159 159 185 193 154 165 186 163 182 178 212 165 187 165 173 167 192 156 182 181 187 173 190 184 161 171 176 169 156 185 174 156 176 169 186 157 171 162 169 180 152 173 182 189 155 157 165 179 177 175 149 132 178 175 183 180 187 183 180 158 162 166 167 188 176 195 190 155 162 172 191 190 172 167 155 154 198 156 175 152 171 150 166 159 156 170 157 165 152 172 169 190 152 165 144 176 184 186 200 173 174 172 173 169 185 176 168 190 166 171 184 157 174 164 189 169 197 157 166 173 164 169 205 195 176 215 168 185 180 178 182 169 174 186 178 185 195 145 182 194 183 215 169 166 166 165 166 176 160 194 172 159 170 181 174 180 159 159 178 185 183 172 170 194 179 171 184 175 178 170 166 183 172 152 194 186 167 153 167 177 169 180 176 182 183 166 194 186 180 172 192 177 173 183 167 156 176 143 186 175 173 172 163 175 167 171 189 185 177 185 174 178 175 179 172 199 174 203 166 181 167 180 178 173 172 161 171 169 192 178 175 158 172 175 154 162 187 179 175 202 189 169 167 172 194 179 182 183 184 188 178 162 175 161 175 175 169 158 167 171 177 159 162 169 177 176 191 186 169 171 180 184 163 170 163 187 186 174 181 170 184 181 160 184 183 176 164 167 198 175 162 187 184 174 144 173 155 177 163 174 162 161 175 169 177 182 165 169 209 182 171 174 211 183 172 150 176 141 187 174 177 180 162 189 158 169 183 169 190 172 193 168 175 176 187 186 190 162 165 177 178 186 184 178 162 162 168 184 163 177 170 162 179 168 174 200 187 197 187 154 171 189 170 179 201 172 174 164 179 159 148 190 184 159 162 164 149 160 169 149 159 174 195 184 190 172 156 176 208 176 173 147 184 169 181 169 170 181 192 175 183 179 183 181 179 164 185 191 184 157 175 159 170 167 197 164 153 187 174 180 173 164 172 196 152 169 168 178 199 190 163 159 197 174 182 193 188 171 168 156 171 185 159 151 180 167 183 228 169 175 182 173 200 174 186 188 175 173 187 165 155 196 187 182 164 160 180 156 165 173 157 174 177 181 183 161 170 163 177 166 158 172 185 186 171 168 168 163 197 172 201 188 160 156 170 181 185 182 180 186 172 182 166 167 159 189 172 162 167 195 197 170 184 184 187 163 180 171 168 168 183 176 194 151 194 162 184 191 198 188 178 180 194 177 154 205 142 198 168 184 174 167 172 174 203 169 168 174 172 167 186 203 174 168 165 166 188 192 166 177 173 165 187 172 213 180 155 176 169 169 201 147 170 146 204 183 174 161 180 204 180 208 164 161 173 160 148 175 192 185 155 156 176 173 170 157 172 181 187 190 182 196 189 170 196 160 167 200 180 205 159 170 169 172 175 156 175 174 171 155 191 164 150 164 195 183 198 191 172 191 174 179 177 179 203 217 162 178 168 166 152 163 173 174 172 217 175 170 174 180 178 167 175 211 173 157 170 184 179 209 170 168 182 184 172 162 167 179 172 186 176 191 142 189 159 172 185 185 184 171 175 173 175 206 159 175 174 160 187 183 156 187 174 207 189 177 173 179 178 169 187 170 185 192 185 169 171 166 166 191 175 193 201 200 170 177 203 191 176 176 207 176 193 185 164 179 166 193 169 187 171 196 177 163 181 185 206 153 185 158 195 189 166 189 189 189 178 185 181 164 206 181 179 177 182 186 190 171 167 188 172 171 162 195 170 198 175 171 211 197 196 182 150 179 172 186 205 201 192 181 177 207 166 188 170 183 154 187 202 197 163 187 159 191 215 191 187 187 201 174 188 184 203 167 167 198 187 199 170 150 176 199 203 179 181 200 182 184 189 178 193 192 191 154 207 182 187 185 177 178 169 172 182 198 164 201 201 191 179 172 184 202 162 174 169 182 201 205 177 186 180 192 193 173 193 185 187 194 172 168 172 191 186 174 181 207 187 184 175 200 177 177 211 167 187 214 224 195 191 193 179 200 155 196 182 188 211 183 169 191 172 183 189 181 194 195 203 179 203 185 199 180 173 186 196 207 199 194 195 191 185 166 174 178 178 191 190 187 188 188 193 202 194 194 192 189 191 201 169 190 206 189 200 182 194 177 196 192 184 196 176 233 198 185 221 189 190 166 218 180 182 209 174 195 187 201 175 184 177 193 189 207 183 193 192 182 174 184 209 174 167 218 182 178 199 185 187 194 197 182 209 192 188 179 192 173 171 198 194 192 200 182 198 197 187 175 186 196 207 207 176 203 168 205 165 203 187 195 188 208 198 180 198 187 185 180 187 193 165 185 171 154 160 182 198 199 186 198 179 185 174 168 171 179 169 190 189 192 201 177 187 194 183 186 191 170 199 181 222 219 203 192 187 178 205 187 216 206 209 190 186 197 216 213 185 190 209 182 185 193 184 180 177 197 201 177 196 175 186 176 187 193 179 184 206 170 172 190 180 170 203 191 202 188 187 198 195 197 199 203 213 213 173 186 202 190 191 203 202 175 173 187 192 194 173 179 192 177 229 191 160 199 196 189 175 198 210 153 208 197 197 178 210 187 200 188 210 195 191 193 191 196 201 169 191 192 190 202 212 207 193 180 178 205 178 201 205 222 182 166 190 186 195 185 164 187 182 188 232 189 179 194 227 194 191 204 192 196 183 186 206 203 184 199 176 198 193 203 194 195 206 225 205 200 198 187 192 192 198 172 206 195 198 181 173 164 169 212 199 221 209 181 192 198 178 198 219 173 152 189 190 214 184 214 179 187 180 170 208 203 196 188 187 189 202 204 186 191 171 215 186 185 196 194 220 202 174 220 179 186 230 220 210 206 207 206 207 209 207 210 210 168 192 189 202 183 191 195 207 184 178 217 212 189 216 204 192 194 218 200 195 204 201 199 218 197 204 182 209 223 167 209 212 205 214 197 212 217 198 212 214 200 196 215 224 206 204 207 198 209 192 211 204 196 169 220 207 215 215 182 206 215 213 204 191 218 211 204 182 186 206 214 215 184 214 200 203 186 203 212 192 207 205 221 189 210 206 214 199 193 242 207 216 209 206 201 189 206 209 191 207 197 189 200 204 225 184 203 209 203 210 219 207 196 204 197 226 191 200 211 213 201 193 224 228 221 210 211 176 232 210 187 205 215 231 184 197 184 192 202 206 181 222 168 216 181 213 210 190 191 195 209 200 224 197 209 177 190 223 217 205 248 215 204 206 224 200 197 195 179 220 236 232 192 201 251 200 213 199 225 206 220 212 199 230 205 213 198 183 213 186 185 211 217 204 217 207 193 202 209 212 200 190 195 195 244 208 210 188 198 210 192 228 198 233 215 206 224 190 207 200 201 211 225 209 196 218 185 232 204 213 186 220 223 189 217 220 209 206 207 198 203 230 218 196 195 200 226 213 211 185 223 217 194 180 207 224 221 212 192 222 189 222 184 213 203 197 204 177 210 202 231 193 208 215 199 219 232 174 205 233 210 220 213 191 201 213 203 217 226 229 204 195 189 211 222 229 220 187 217 193 208 219 201 210 202 202 215 205 178 215 175 209 183 205 228 223 227 197 204 197 212 221 183 198 184 196 198 207 197 206 208 203 221 233 201 192 204 195 190 219 228 211 198 215 225 227 207 202 227 215 200 194 203 196 205 207 193 191 186 182 207 205 182 197 195 207 202 208 193 173 186 192 242 195 189 207 220 220 200 211 207 190 187 183 203 216 224 180 200 191 218 210 204 195 199 186 218 196 214 212 179 195 163 194 189 178 192 179 228 182 203 178 204 171 201 194 197 199 206 184 203 204 204 213 210 191 204 195 186 214 209 209 189 191 197 199 219 192 219 184 196 215 195 190 183 199 221 199 170 172 193 197 204 197 213 228 229 226 196 193 169 198 208 196 204 193 210 206 182 215 208 197 212 206 200 195 194 197 206 177 195 217 220 197 179 201 218 215 169 213 197 197 208 204 206 173 213 194 220 180 226 189 206 216 198 172 230 208 221 196 211 197 210 200 176 216 200 214 184 196 197 186 204 213 201 224 201 211 211 185 218 213 187 211 200 200 198 208 226 185 187 205 203 187 209 196 169 192 216 210 215 197 205 199 222 211 190 203 213 207 183 210 203 190 186 205 193 192 206 194 226 200 210 214 212 201 211 186 199 210 198 206 183 183 179 190 181 187 184 183 200 216 199 194 216 176 226 214 217 197 198 185 188 198 189 217 211 211 197 211 199 180 182 180 207 214 217 200 194 212 209 214 185 171 194 185 182 208 216 219 200 195 186 256 197 213 204 188 203 196 197 183 215 217 225 216 200 213 199 206 220 223 203 212 210 211 188 221 208 214 204 207 187 200 191 209 199 225 197 205 178 213 201 191 212 187 218 228 211 188 197 210 220 195 194 181 222 206 202 202 224 208 216 214 226 185 211 212 189 224 215 217 216 228 227 219 199 204 188 202 203 219 204 207 195 182 189 213 197 211 212 223 192 195 216 235 179 204 197 214 204 206 240 200 210 239 198 230 226 220 256 212 208 214 211 262 217 212 185 215 206 197 219 221 232 207 214 211 216 205 196 223 202 263 213 214 216 214 221 240 213 225 208 201 236 207 196 207 225 219 219 191 235 195 221 209 232 248 231 222 203 228 215 213 216 198 225 233 218 243 211 234 215 226 227 218 259 225 230 238 201 246 210 220 220 201 187 223 216 245 215 224 215 202 224 233 222 215 227 225 209 235 216 222 213 225 224 204 191 239 194 207 224 240 222 229 220 199 223 249 228 222 239 224 221 205 256 235 226 235 219 219 204 229 209 241 234 222 243 211 234 212 246 227 221 219 218 246 215 219 276 238 242 221 269 239 218 237 273 222 227 223 230 236 220 247 266 215 232 239 218 243 232 210 270 235 258 271 271 242 233 256 249 239 207 225 233 274 212 233 221 214 226 257 232 249 259 230 260 243 243 222 243 217 271 237 200 244 263 250 227 241 257 270 269 232 230 273 276 263 267 234 262 275 240 239 242 262 260 270 299 274 287 246 276 279 261 259 262 265 264 279 267 290 257 304 238 282 260 283 275 276 258 273 261 274 257 290 250 317 263 272 303 256 286 300 265 281 259 287 293 265 301 292 256 286 261 299 244 292 310 324 270 263 298 298 299 286 290 287 274 299 296 326 297 279 311 276 321 309 280 281 305 306 313 273 327 274 324 309 311 317 303 332 305 317 311 316 321 313 311 291 327 318 305 315 322 315 312 332 289 327 318 303 372 362 307 298 321 347 310 334 304 351 375 342 308 315 327 330 337 341 328 328 313 345 335 340 320 344 313 340 304 354 324 319 320 326 351 324 298 320 343 334 345 338 327 307 366 344 336 335 333 331 320 347 322 330 350 343 320 331 328 328 359 355 326 308 344 337 322 311 296 336 325 318 323 329 329 343 318 339 308 340 309 305 316 358 274 332 328 337 324 323 349 287 306 324 316 321 334 291 299 274 316 318 322 305 301 263 314 300 307 321 276 296 305 309 264 287 272 260 293 307 315 281 311 314 293 298 305 287 284 258 298 290 274 290 320 274 250 256 267 226 266 273 271 294 278 263 249 271 310 298 270 257 240 246 291 299 273 269 281 276 275 246 282 278 256 247 290 250 232 234 232 246 243 235 234 244 229 238 263 234 219 239 245 245 280 207 261 265 249 244 256 248 233 274 252 260 237 225 233 235 243 225 265 256 233 238 238 248 278 235 244 219 241 205 209 230 213 238 196 227 244 257 214 233 223 224 221 220 219 216 234 233 224 191 231 221 221 223 202 211 230 216 228 202 238 213 218 232 215 212 208 239 197 203 233 217 205 221 226 195 198 217 214 216 224 214 202 217 172 200 189 196 213 241 202 194 214 211 199 194 209 187 180 214 216 199 181 204 209 209 211 215 222 205 184 228 216 182 214 196 218 229 220 224 171 205 182 203 179 204 189 236 189 181 199 183 183 219 193 178 184 225 206 196 201 204 195 199 213 214 178 201 199 211 181 183 194 188 201 188 198 201 200 194 190 195 196 176 191 179 188 183 194 192 173 169 174 182 182 200 180 162 181 177 189 196 202 180 181 192 190 156 184 175 195 193 185 203 191 169 201 171 223 178 194 200 182 190 177 178 183 203 178 189 182 186 200 186 180 178 202 181 190 199 193 190 205 186 191 180 186 153 194 169 201 180 170 203 177 163 180 190 196 176 193 173 194 189 191 197 175 168 194 152 191 196 192 184 169 192 198 168 197 186 197 211 183 202 192 195 181 172 219 197 185 178 177 182 190 179 184 190 183 188 188 174 195 183 196 206 166 192 177 189 166 171 187 165 177 172 193 166 181 186 192 169 185 150 182 186 184 170 176 173 198 195 172 162 177 162 172 183 184 185 171 195 186 161 159 158 174 158 177 174 148 198 164 156 171 146 178 162 195 157 171 169 151 195 149 159 164 196 188 177 165 172 169 171 174 172 160 180 196 170 159 168 195 184 165 199 165 180 161 174 191 167 172 187 183 187 160 158 170 164 155 181 190 185 143 149 185 187 189 180 160 143 183 195 176 139 178 168 176 157 146 195 175 147 194 160 165 176 161 173 152 144 150 194 152 162 151 163 134 159 154 176 151 171 173 161 176 155 164 161 187 177 180 190 173 184 164 176 173 165 149 181 173 163 179 152 176 162 146 174 191 145 152 161 169 193 159 159 185 170 148 152 171 169 175 165 181 149 157 172 161 169 183 175 148 166 166 193 162 157 153 141 194 194 160 185 159 177 154 159 145 147 158 143 169 165 164 179 170 170 153 170 150 173 186 168 188 152 179 158 147 140 153 176 158 151 155 164 163 155 166 159 158 173 161 172 140 169 155 168 174 163 163 156 172 172 146 145 160 160 153 166 167 151 168 148 163 173 159 152 157 189 152 154 168 168 168 161 180 153 160 158 144 182 170 148 180 146 147 186 156 181 145 161 145 160 177 155 174 148 167 162 161 188 161 149 156 143 166 140 147 146 161 158 154 175 141 150 151 177 149 180 158 159 174 181 182 154 150 169 157 174 156 168 147 183 155 158 152 163 122 155 157 172 181 139 148 176 191 156 164 176 142 180 155 157 157 169 149 136 144 170 181 159 143 145 143 170 170 152 166 161 169 180 177 160 153 150 171 145 164 167 156 160 157 141 177 148 147 180 163 152 171 152 143 205 154 169 151 193 172 151 153 148 175 160 150 154 164 158 151 161 151 173 138 147 157 150 158 158 143 155 163 159 174 166 187 158 144 150 142 157 173 156 139 181 177 157 129 163 172 156 159 133 152 150 153 143 167 164 148 151 161 165 161 168 181 157 155 168 169 157 161 138 159 173 162 145 147 161 157 145 152 148 143 160 124 162 147 160 142 145 185 157 136 157 141 159 126 147 155 149 154 163 185 165 152 143 166 145 137 139 161 173 146 150 160 153 169 164 136 172 157 149 143 164 162 160 151 145 161 136 170 144 154 155 161 166 145 179 160 171 161 180 155 142 161 163 175 147 160 148 173 152 139 174 156 154 163 141 158 153 180 152 153 140 157 172 163 150 138 161 153 151 144 148 151 152 159 144 159 162 154 158 187 155 149 149 147 162 171 170 181 139 138 158 151 135 138 160 149 153 184 127 139 143 166 157 153 164 169 155 141 147 136 158 145 132 164 156 150 148 130 171 189 169 173 128 150 140 153 153 134 166 171 172 157 143 151 151 149 156 159 136 116 157 138 157 152 136 140 147 163 155 161 136 152 141 159 132 127 158 159 136 174 164 159 126 135 146 169 152 178 151 160 172 143 155 157 170 158 159 146 152 141 169 154 147 125 171 159 142 132 127 133 127 176 153 130 157 133 142 140 160 145 152 147 154 140 145 127 142 150 150 140 145 146 153 146 154 169 141 146 140 169 135 159 146 157 129 170 135 155 133 152 133 156 144 154 162 142 149 136 123 149 177 162 145 150 127 169 160 168 160 131 166 134 163 135 170 151 151 127 145 170 169 149 127 147 156 154 155 173 163 163 143 152 142 158 142 166 143 163 140 154 131 142 136 150 122 142 129 155 168 132 161 150 144 131 148 134 142 147 158 142 134 167 139 146 147 143 151 155 154 146 146 157 161 140 141 150 143 148 136 152 163 153 133 143 129 149 158 143 167 140 132 162 160 121 153 156 151 158 136 169 131 151 128 133 142 135 140 144 156 154 139 132 138 158 168 173 155 140 162 159 145 120 164 142 167 145 150 140 154 124 151 144 143 133 121 163 138 137 128 146 155 130 144 157 142 141 128 144 119 146 140 155 168 147 138 149 129 144 155 145 151 131 162 146 150 143 160 154 131 169 147 151 153 155 138 148 148 165 137 155 158 141 160 149 121 153 147 128 129 135 142 160 158 182 135 153 157 128 135 162 146 140 158 149 156 149 132 142 144 124 133 134 137 132 152 145 161 142</intensities>
			</dataPoints>
		</scan>
	</xrdMeasurement>
</xrdMeasurements>
