<?xml version="1.0" encoding="UTF-8"?>
<xrdMeasurements xmlns="http://www.xrdml.com/XRDMeasurement/1.7" xmlns:xsi="http://www.w3.org/2001/XMLSchema-instance" xsi:schemaLocation="http://www.xrdml.com/XRDMeasurement/1.7 http://www.xrdml.com/XRDMeasurement/1.7/XRDMeasurement.xsd" status="Completed">
	<comment>
		<entry>Configuration=Conf. Reflection-transmission spinner, Owner=User-1, Creation date=2/28/2018 8:43:02 AM</entry>
		<entry>Goniometer=Theta/Theta; Minimum step size 2Theta:0.0001; Minimum step size Omega:0.0001</entry>
		<entry>Sample stage=Reflection-transmission spinner; Minimum step size Phi:0.1</entry>
		<entry>Diffractometer system=EMPYREAN</entry>
		<entry>Measurement program=C:\PANalytical\Data Collector\Programs\sample-1.xrdmp, Identifier={BB6687EE-8248-4E06-B0C7-67735DEB5D7E}</entry>
		<entry>Batch program=C:\PANalytical\Data Collector\Programs\P3.xrdmp, Identifier={DA42CAC0-9290-49D3-8E45-EBBC45FD55A0}</entry>
	</comment>
	<sample type="To be analyzed">
		<id></id>
		<name></name>
		<preparedBy></preparedBy>
	</sample>
	<xrdMeasurement measurementType="Scan" status="Completed" sampleMode="Reflection">
		<comment>
			<entry>PHD Lower Level = 4.02 (keV), PHD Upper Level = 11.27 (keV)</entry>
		</comment>
		<usedWavelength intended="K-Alpha 1">
			<kAlpha1 unit="Angstrom">1.5405980</kAlpha1>
			<kAlpha2 unit="Angstrom">1.5444260</kAlpha2>
			<kBeta unit="Angstrom">1.3922500</kBeta>
			<ratioKAlpha2KAlpha1>0.5000</ratioKAlpha2KAlpha1>
		</usedWavelength>
		<incidentBeamPath>
			<radius unit="mm">240.00</radius>
			<xRayTube id="1010048" name="Empyrean Cu LFF HR (9430 033 7310x) DK427586">
				<tension unit="kV">40.0</tension>
				<current unit="mA">40.0</current>
				<anodeMaterial>Cu</anodeMaterial>
				<focus type="Line">
					<length unit="mm">12.0</length>
					<width unit="mm">0.4</width>
					<takeOffAngle unit="deg">4.4</takeOffAngle>
				</focus>
			</xRayTube>
			<xRayMirror id="27020009" name="Bragg-Brentano HD" hybrid="false">
				<crystal type="Graded" shape="Flat">BB/HD</crystal>
				<acceptanceAngle unit="deg">0.800</acceptanceAngle>
				<length unit="mm">55.3</length>
			</xRayMirror>
			<sollerSlit id="21010002" name="Soller slits 0.04 rad.">
				<opening unit="rad">0.0400</opening>
			</sollerSlit>
			<mask id="22030009" name="Fixed mask 10 mm">
				<width unit="mm">10.00</width>
			</mask>
			<antiScatterSlit id="22010003" name="Fixed slit 1°" xsi:type="fixedAntiScatterSlitType">
				<height unit="mm">1.52</height>
			</antiScatterSlit>
			<divergenceSlit id="22010005" name="Fixed slit 1/4°" xsi:type="fixedDivergenceSlitType">
				<distanceToSample unit="mm">140.00</distanceToSample>
				<height unit="mm">0.38</height>
			</divergenceSlit>
		</incidentBeamPath>
		<diffractedBeamPath>
			<radius unit="mm">240.00</radius>
			<antiScatterSlit id="22090010" name="AS slit 8.0 mm (PIXcel)" xsi:type="fixedAntiScatterSlitType">
				<height unit="mm">8.00</height>
			</antiScatterSlit>
			<sollerSlit id="21020003" name="Large Soller slits 0.04 rad.">
				<opening unit="rad">0.0400</opening>
			</sollerSlit>
			<detector id="7010019" name="PIXcel1D-Medipix3 detector" xsi:type="rtmsDetectorType">
				<phd unit="%">
					<lowerLevel>25.0</lowerLevel>
					<upperLevel>70.0</upperLevel>
				</phd>
				<mode>Scanning</mode>
				<activeLength unit="deg">3.3482</activeLength>
			</detector>
		</diffractedBeamPath>
		<scan appendNumber="0" mode="Continuous" scanAxis="Gonio" status="Completed">
			<header>
				<startTimeStamp>2025-12-26T12:57:55+08:00</startTimeStamp>
				<endTimeStamp>2025-12-26T13:09:23+08:00</endTimeStamp>
				<author>
					<name>User</name>
				</author>
				<source>
					<applicationSoftware version="5.5a">Data Collector</applicationSoftware>
					<instrumentControlSoftware version="7.9j 20171025">EMPYREAN</instrumentControlSoftware>
					<instrumentID>0000000011214615</instrumentID>
				</source>
			</header>
			<dataPoints>
				<positions axis="2Theta" unit="deg">
					<startPosition>6.00558257</startPosition>
					<endPosition>75.99655438</endPosition>
				</positions>
				<positions axis="Omega" unit="deg">
					<startPosition>3.00279129</startPosition>
					<endPosition>37.99827719</endPosition>
				</positions>
				<positions axis="Phi" unit="deg">
					<commonPosition>0.0</commonPosition>
				</positions>
				<commonCountingTime unit="seconds">13.770</commonCountingTime>
				<intensities unit="counts">469 479 556 516 517 509 508 529 533 509 524 473 510 525 495 498 519 494 514 464 499 517 541 509 474 523 485 505 501 545 481 500 477 527 564 493 474 501 455 474 514 464 500 474 481 482 513 494 520 495 496 504 480 459 479 470 509 534 473 522 444 506 471 479 483 448 478 491 522 500 498 499 465 504 488 460 465 456 479 497 450 541 467 480 496 515 537 450 482 490 468 459 520 452 466 507 447 489 525 452 487 464 486 445 459 515 440 451 464 453 458 478 523 479 529 515 461 462 449 444 458 495 476 434 446 433 472 471 485 439 454 488 431 461 436 506 426 445 475 487 472 468 447 458 452 454 447 478 479 469 477 503 463 456 473 486 498 477 478 461 480 477 473 444 453 523 464 444 487 437 426 445 429 478 431 479 465 416 459 485 465 457 446 447 495 381 422 480 461 514 501 431 427 477 442 473 485 473 424 484 427 455 487 422 485 450 450 449 432 473 461 461 449 478 529 421 450 457 459 433 478 463 435 463 488 455 426 445 458 433 451 502 459 464 439 456 436 450 432 436 476 462 453 469 442 429 488 473 468 457 422 449 410 501 444 447 417 401 442 467 445 448 426 468 442 438 473 445 404 445 422 412 443 423 436 443 439 425 448 465 440 426 445 442 468 403 485 456 455 439 491 471 457 432 465 465 417 429 443 443 421 437 441 426 425 479 426 417 447 422 419 461 460 428 481 473 450 406 457 428 449 457 458 431 451 438 443 452 409 420 418 450 420 464 435 406 442 450 414 432 465 470 390 450 422 445 457 445 461 463 397 403 446 469 454 407 419 444 452 462 435 456 422 409 404 430 464 414 432 439 407 389 464 385 418 444 466 449 430 428 432 413 469 407 406 402 406 397 435 449 415 406 457 442 424 401 426 411 431 418 393 413 450 416 426 430 452 418 397 418 398 450 410 430 463 399 422 383 404 391 414 447 434 422 399 408 391 424 425 428 442 430 387 427 381 480 450 420 429 382 439 415 377 409 355 381 420 417 408 441 406 376 449 417 426 407 407 420 392 414 417 426 479 444 405 421 419 399 418 411 380 412 400 419 402 424 432 438 431 376 407 430 436 448 429 428 473 426 430 387 395 417 379 433 397 383 442 420 380 445 379 379 393 387 376 385 374 388 387 368 413 371 409 403 397 375 408 407 380 412 384 420 441 416 418 365 410 410 409 418 431 412 401 377 440 394 398 399 404 381 409 423 417 378 419 405 399 426 412 391 403 428 394 398 403 374 405 404 443 429 377 421 399 407 422 395 415 420 402 401 388 412 413 396 429 410 374 413 375 372 372 397 402 375 396 390 388 399 407 382 413 423 408 410 393 407 395 376 376 348 424 408 406 393 409 418 413 389 418 396 371 413 390 347 402 364 402 372 385 382 389 379 399 377 375 403 408 402 381 369 399 398 404 375 417 362 368 407 366 423 424 398 363 376 364 372 406 381 352 395 409 376 392 391 373 413 404 367 361 392 391 382 381 362 372 384 417 381 396 416 373 397 413 382 431 386 384 377 385 372 395 354 427 407 407 359 379 402 377 411 430 393 382 382 373 379 389 382 412 387 360 407 363 385 396 374 366 346 410 390 361 376 373 410 341 363 393 393 389 370 362 376 365 372 396 345 365 402 330 378 376 418 393 369 378 387 384 383 378 350 355 343 357 386 381 359 374 363 375 376 361 380 406 398 370 382 363 343 379 385 318 374 356 401 355 342 382 355 377 366 359 362 370 346 398 373 387 363 364 348 362 352 369 374 355 353 373 398 364 368 356 343 333 392 358 375 350 383 359 326 357 370 331 339 333 352 376 405 377 388 356 376 371 398 377 375 368 328 353 377 334 351 345 343 362 367 367 352 368 343 383 368 380 333 375 395 337 358 357 341 355 336 349 364 347 359 338 352 340 356 371 338 352 341 313 359 355 361 369 372 360 326 359 387 358 338 374 362 346 364 361 358 363 375 367 356 395 346 325 335 314 381 366 368 332 343 336 340 332 332 325 365 341 336 320 309 359 327 346 383 352 353 365 371 308 338 337 346 356 368 336 391 361 349 330 330 356 335 368 381 333 318 326 337 342 309 352 363 326 315 335 357 367 331 336 346 322 348 350 338 350 319 306 331 317 344 333 368 327 329 359 349 319 337 352 319 324 351 342 341 298 363 348 351 338 332 337 395 304 332 326 336 317 347 344 342 341 306 328 310 357 339 349 325 302 333 317 298 338 337 338 343 313 322 323 303 309 317 348 292 322 311 343 315 328 319 337 360 347 332 330 326 314 329 313 343 321 335 337 342 327 308 315 323 329 355 298 342 352 334 358 334 324 330 302 325 324 325 301 305 328 330 356 341 340 327 313 311 288 296 310 309 331 306 327 303 317 341 321 330 316 341 298 327 321 332 328 342 332 306 335 328 308 320 309 284 324 303 293 314 318 323 279 309 298 332 301 317 326 325 333 297 344 328 313 333 339 319 329 328 307 316 300 298 301 297 326 309 280 306 304 295 332 328 328 317 298 283 299 286 306 315 294 289 275 279 292 295 295 322 303 290 296 290 311 296 341 312 320 316 350 322 294 286 291 303 293 304 297 274 305 305 278 316 281 311 354 287 299 301 322 311 320 295 302 317 308 277 283 321 272 329 281 316 287 257 312 285 291 296 298 295 295 280 329 329 311 284 278 319 304 290 284 312 261 290 284 281 262 331 271 290 305 299 298 289 301 307 298 307 293 296 281 285 324 291 302 300 291 311 318 265 273 262 306 309 296 276 289 318 296 291 300 340 277 283 284 288 270 297 297 256 313 276 295 265 284 271 298 283 325 310 289 265 298 278 313 288 291 269 288 310 271 240 263 296 268 309 293 298 291 305 284 283 280 290 273 291 303 305 291 325 274 285 269 287 264 300 300 309 272 315 248 273 278 294 293 286 298 274 316 299 276 286 302 297 303 302 289 304 273 311 310 278 292 275 284 291 251 289 271 300 265 287 300 290 310 270 284 289 269 299 286 268 302 290 306 287 274 279 273 305 289 290 292 271 288 236 302 256 281 274 260 271 281 266 270 265 248 287 286 247 267 258 306 276 276 282 280 272 264 291 282 290 294 258 286 275 300 269 326 267 287 276 321 241 290 270 284 280 283 238 268 270 271 276 265 292 284 246 259 241 288 248 250 289 302 265 331 262 264 274 278 295 278 293 287 248 264 289 276 247 272 299 285 272 285 294 266 240 262 259 266 263 241 261 290 272 279 241 264 296 293 243 241 258 279 293 286 269 242 270 237 263 273 298 247 270 275 286 290 267 267 250 244 284 247 280 280 262 266 229 266 231 243 249 256 280 256 272 242 245 234 281 285 283 259 277 301 272 297 297 285 266 258 247 259 274 234 272 278 246 268 284 288 274 283 291 274 275 264 264 273 272 259 260 257 257 315 280 259 280 294 287 291 269 271 265 234 241 263 271 269 242 291 245 256 298 276 284 270 258 261 294 265 272 279 237 228 266 230 265 278 233 273 237 230 271 289 258 260 259 292 265 269 257 229 267 274 263 227 274 269 280 214 270 249 287 245 281 271 256 273 266 230 265 231 231 266 266 269 239 232 246 272 256 249 249 275 296 258 264 281 242 278 256 266 257 246 266 248 240 242 247 287 235 234 273 206 240 288 244 214 248 233 270 278 258 266 268 248 233 261 231 276 245 236 263 226 275 247 270 240 267 272 277 259 265 273 278 229 285 249 270 281 260 240 289 261 225 282 260 244 256 268 256 224 243 245 242 222 279 256 284 264 269 239 250 236 235 238 271 277 256 247 258 260 235 240 238 263 266 257 230 249 288 247 248 244 265 247 243 266 245 294 238 245 240 256 272 243 256 282 291 260 256 257 239 243 244 240 257 243 257 243 257 245 222 276 245 232 241 225 242 237 238 262 275 242 203 265 238 261 231 271 256 257 238 245 234 265 230 248 260 211 261 265 274 239 242 251 262 267 245 238 240 248 242 241 240 234 242 241 245 246 233 218 258 245 267 250 257 239 240 242 256 244 244 241 206 258 238 259 268 224 266 241 227 226 287 242 261 248 227 269 269 272 258 249 237 247 270 288 234 226 259 218 250 265 242 236 232 229 242 231 234 243 232 220 246 274 248 271 234 250 227 246 230 268 268 246 242 223 225 260 243 256 246 230 277 237 269 282 276 249 249 230 235 257 268 270 218 258 239 226 265 240 231 247 232 236 259 265 246 279 232 227 287 248 270 224 240 247 234 235 239 249 241 257 249 224 232 263 225 271 245 232 233 258 238 281 259 239 210 246 239 281 248 267 261 275 281 271 245 270 234 244 232 266 277 288 283 263 243 238 232 219 247 250 244 242 261 212 281 236 281 249 247 283 245 256 237 233 237 266 275 248 272 249 250 231 233 234 238 242 249 245 270 273 264 232 266 246 242 241 274 274 230 268 250 225 244 280 256 260 284 276 214 236 233 257 215 249 236 232 227 225 280 237 238 246 262 233 239 265 250 276 274 250 258 237 270 269 266 274 258 239 268 291 257 275 256 241 211 259 221 284 246 274 289 238 259 225 239 275 233 231 237 257 240 272 276 265 274 220 250 257 258 251 240 261 233 244 288 279 269 247 268 250 278 235 268 236 239 267 271 313 238 261 246 225 237 221 235 248 258 245 271 270 249 259 266 241 261 256 246 249 223 263 263 256 289 231 257 230 274 263 242 259 235 257 266 269 221 275 258 248 261 258 299 261 235 228 257 264 220 247 261 234 257 263 271 233 222 250 236 241 259 288 229 261 240 218 230 236 223 264 231 278 259 260 231 248 240 250 266 231 233 215 256 247 218 262 224 246 236 229 227 224 250 241 270 280 247 220 246 248 212 242 221 241 257 242 248 232 226 231 246 212 265 258 265 245 248 262 261 211 248 234 202 243 232 208 223 226 228 220 222 256 236 238 216 262 230 229 212 228 240 220 268 248 258 230 232 249 245 218 241 224 246 207 257 246 236 220 246 261 248 238 234 226 234 218 217 225 238 233 240 239 230 231 220 212 259 220 233 238 237 220 239 248 213 271 203 221 223 232 240 249 219 225 245 222 231 250 229 216 246 224 218 238 208 217 219 260 259 260 218 208 243 213 209 217 224 238 248 222 222 223 211 215 223 231 226 238 231 243 231 215 232 204 201 203 226 232 225 230 183 204 228 228 260 226 239 227 203 220 215 256 216 219 216 217 230 227 231 212 237 231 215 236 214 246 209 242 224 243 205 207 241 215 197 233 212 223 213 234 234 206 214 242 214 224 203 207 185 225 207 235 187 217 236 258 239 241 229 197 233 230 200 200 210 209 237 214 209 202 218 223 229 221 216 209 224 223 228 241 207 199 201 217 213 219 217 226 232 189 227 235 208 214 238 234 194 228 277 185 208 230 229 208 240 226 212 204 230 201 218 220 212 190 214 185 221 213 214 218 231 199 222 214 201 214 202 204 208 205 223 198 193 203 200 221 225 205 225 219 234 205 209 192 228 220 222 242 204 214 245 229 221 231 237 209 215 239 217 215 218 209 220 195 216 237 208 258 209 219 217 216 205 221 237 208 228 222 222 205 213 227 198 235 224 210 179 216 219 215 193 226 200 197 244 199 207 216 232 226 229 212 236 244 240 231 226 193 241 211 228 205 231 193 208 201 208 212 214 191 222 211 250 207 216 208 202 239 209 208 222 219 209 193 201 203 227 183 204 238 212 219 238 199 216 216 217 188 210 232 221 223 210 218 220 200 190 217 193 208 211 231 235 202 220 214 197 217 210 225 233 205 223 208 198 226 224 203 222 220 204 215 234 218 195 208 202 188 203 214 191 218 238 220 213 229 226 219 229 216 224 214 227 201 189 209 240 204 203 200 199 208 205 239 215 231 215 219 262 204 208 233 225 215 237 196 215 206 201 210 194 195 215 225 209 208 213 235 212 183 216 228 224 219 211 212 222 198 208 210 204 202 192 194 206 218 240 197 176 203 206 206 226 230 200 230 201 229 224 210 207 214 210 192 213 217 209 205 195 190 239 220 208 223 225 206 241 217 220 208 215 229 212 178 197 201 229 219 226 213 213 203 216 224 199 206 208 211 200 194 226 221 217 201 201 243 192 192 200 206 229 207 229 203 178 210 230 244 215 227 204 222 240 216 227 170 195 215 198 189 219 238 183 216 210 187 217 227 229 204 210 210 210 202 204 228 224 198 186 212 212 197 195 205 185 216 203 220 241 211 193 185 202 196 209 221 224 204 209 208 214 219 181 194 211 225 217 211 222 183 208 207 206 198 230 208 196 192 189 215 194 226 206 222 202 234 206 225 203 211 201 239 192 219 211 203 211 240 211 213 206 205 203 191 195 217 218 228 197 230 211 217 202 188 207 195 221 199 219 196 216 189 218 188 221 215 195 220 226 208 210 236 212 219 223 222 197 229 201 208 203 205 205 227 216 206 242 210 198 186 230 218 229 220 215 212 221 214 217 219 201 239 223 211 225 233 224 238 209 226 258 192 226 239 224 216 187 230 216 230 237 207 200 212 219 204 210 225 241 230 211 216 201 236 204 225 223 265 230 226 207 221 237 236 208 248 213 221 228 222 233 225 256 230 248 234 234 274 263 271 248 262 271 289 267 271 313 299 318 272 325 306 319 290 342 329 375 340 342 352 372 371 369 401 349 406 394 404 425 424 427 451 461 425 526 475 459 462 467 441 471 473 451 454 454 478 458 465 452 462 457 397 411 404 415 405 416 428 368 397 376 360 360 373 355 356 324 327 315 300 310 332 323 302 321 250 287 281 271 291 265 249 258 265 234 283 271 229 247 240 231 245 211 264 222 212 247 231 202 217 241 262 236 209 211 233 211 224 216 227 212 217 199 215 178 230 266 243 217 242 238 246 215 238 218 226 230 229 230 214 200 216 207 223 232 185 211 229 243 216 212 220 204 228 243 207 237 214 214 230 231 227 198 212 189 226 239 229 197 215 204 212 224 225 235 227 200 235 243 191 207 212 224 210 209 202 229 206 228 202 204 197 209 236 217 201 223 219 193 215 211 177 194 209 241 216 211 215 212 207 212 224 221 211 214 192 220 208 210 227 232 219 213 212 201 191 204 240 218 228 227 221 231 226 212 220 227 227 224 211 198 229 183 218 210 207 194 209 211 222 232 208 200 187 213 216 241 226 215 207 190 217 218 207 205 200 191 222 231 214 190 222 189 221 203 227 215 184 204 194 205 219 212 218 206 214 232 229 204 225 196 197 242 227 224 202 205 206 226 207 218 216 223 205 216 213 226 201 223 248 222 214 222 197 221 172 203 214 218 205 238 202 183 234 209 209 204 223 211 239 200 228 208 206 218 208 218 204 204 195 235 208 223 217 227 227 219 172 210 205 215 167 216 248 233 220 208 212 222 228 222 227 210 173 249 220 210 224 211 201 220 213 198 204 213 228 224 213 215 220 234 224 224 230 185 197 237 219 207 208 223 195 232 232 213 197 179 196 198 201 194 192 217 244 208 206 229 219 200 213 227 214 245 232 230 200 193 204 213 206 229 214 199 184 219 238 220 230 219 229 238 236 225 222 216 216 206 235 218 224 224 226 221 215 228 228 227 226 215 218 227 276 204 219 227 247 205 224 229 233 229 238 228 207 202 215 226 215 214 235 229 212 221 203 234 212 258 216 221 191 206 218 241 233 225 244 238 208 222 210 212 211 210 192 231 192 242 236 212 225 208 228 245 226 237 215 228 220 208 232 237 207 219 207 221 206 193 224 220 219 221 232 226 245 223 225 239 210 215 223 212 223 220 198 231 200 228 211 241 190 225 209 235 236 238 218 240 229 248 205 239 235 226 192 205 212 195 212 235 217 240 235 217 226 234 247 224 201 240 240 233 227 268 232 218 225 232 194 201 202 217 207 212 237 188 264 229 211 217 242 220 216 250 208 228 217 241 222 261 242 242 221 248 189 246 235 243 228 202 230 225 199 239 233 210 239 248 243 218 209 226 221 226 223 229 224 223 245 214 223 226 210 219 226 228 266 222 219 238 225 258 239 226 248 237 218 232 233 222 247 213 267 232 213 213 206 228 239 242 226 245 246 221 260 226 223 251 239 212 264 231 235 221 216 218 238 245 236 265 242 218 223 265 227 243 237 249 244 244 242 223 250 237 226 235 257 289 251 213 241 235 242 245 244 247 244 289 248 247 242 248 268 228 237 227 220 239 239 260 230 232 248 247 260 251 222 265 262 258 261 267 264 229 237 264 223 248 233 210 238 241 266 250 232 256 236 247 259 233 234 256 269 244 238 218 223 202 285 223 272 238 207 238 291 250 261 273 235 273 256 246 229 261 204 236 263 238 272 261 246 243 256 235 234 262 243 251 239 257 240 242 246 241 270 234 282 266 285 268 230 249 275 229 288 245 238 245 235 299 269 226 275 244 275 251 246 263 266 247 240 238 263 256 260 265 245 238 301 263 232 257 236 272 262 267 259 245 249 242 242 260 270 256 261 271 256 274 264 291 263 272 240 259 273 282 229 233 279 276 283 285 242 259 261 220 228 269 250 272 257 241 256 289 285 248 281 262 242 272 221 257 239 250 274 271 226 273 283 274 238 266 259 244 243 274 292 323 265 240 279 266 267 247 266 273 282 298 288 234 266 270 259 273 264 241 272 282 283 292 288 283 302 238 268 286 268 276 276 279 306 274 285 261 288 279 285 282 243 292 279 269 272 289 282 263 247 279 244 241 294 286 273 271 281 279 243 266 248 309 285 225 274 262 257 249 316 263 277 280 265 276 267 267 250 272 266 294 285 282 284 283 279 276 279 289 277 323 320 314 235 297 266 301 247 275 285 259 273 232 316 274 246 286 280 262 332 269 292 281 270 275 236 280 249 294 306 266 284 290 257 291 264 277 289 256 271 268 277 282 313 308 294 289 250 271 285 272 285 269 311 287 266 262 272 327 293 274 298 301 271 312 285 265 270 268 260 262 307 275 272 279 306 305 317 279 301 268 268 238 268 264 271 292 276 258 266 268 275 307 292 310 277 247 270 312 246 240 268 283 310 300 304 269 286 313 281 307 283 269 286 329 282 299 300 275 291 269 289 282 247 270 279 302 287 263 291 262 310 262 289 282 300 294 306 286 296 297 267 286 305 290 327 313 282 268 278 293 272 319 287 301 287 314 280 284 282 269 266 288 281 307 309 284 326 272 293 280 291 282 317 314 274 274 302 281 287 313 286 301 323 279 278 293 271 337 294 268 281 309 275 286 284 294 301 297 302 312 303 271 282 295 267 286 280 286 281 273 295 286 338 261 302 301 271 304 300 294 292 298 266 267 299 293 287 250 243 302 275 289 287 279 264 288 289 299 281 241 273 300 267 289 288 278 269 288 292 260 315 273 296 266 291 278 257 245 271 269 266 249 277 307 286 293 285 277 284 237 238 291 265 287 256 300 264 303 285 274 269 281 247 261 245 264 235 272 265 276 284 262 287 330 269 250 271 266 272 286 229 291 283 302 267 293 270 277 273 259 274 279 284 328 283 277 280 276 269 273 279 258 266 278 248 281 279 283 291 270 286 277 280 278 268 268 224 301 271 281 268 287 232 278 265 284 275 279 262 282 290 263 262 272 292 279 274 266 313 263 241 232 266 277 303 289 297 277 292 266 271 270 304 280 313 277 295 287 260 257 260 240 274 279 281 282 303 279 296 277 269 302 264 247 282 309 317 279 278 268 260 302 262 277 285 236 288 283 270 277 293 294 295 280 285 288 272 261 293 306 298 269 262 295 286 282 281 274 288 276 281 298 284 312 265 287 301 282 281 311 284 284 291 247 287 279 288 296 300 309 284 286 322 286 324 300 274 319 283 329 293 332 288 291 327 341 297 315 369 347 309 348 374 355 360 320 367 384 372 335 351 380 369 377 379 410 430 437 427 442 406 464 425 493 454 473 450 459 512 473 504 542 524 539 501 537 517 572 547 543 543 506 538 538 566 578 620 582 611 588 578 550 557 578 576 580 532 607 595 585 627 603 597 587 569 571 511 595 518 518 513 499 525 511 510 522 526 501 490 459 541 508 467 471 444 446 395 392 419 422 435 423 417 396 391 397 357 370 370 389 354 385 370 365 348 330 350 379 357 338 341 318 335 366 310 322 316 312 333 279 304 311 324 327 311 312 329 316 345 318 299 294 315 328 340 323 314 308 323 316 280 334 332 288 308 341 309 328 323 308 299 303 336 343 297 317 320 299 322 322 325 287 320 320 318 310 326 320 336 323 291 292 319 324 301 336 352 271 314 328 351 326 299 290 298 310 290 318 314 322 350 314 311 296 301 292 338 324 300 319 334 332 326 343 316 273 306 317 326 333 318 311 294 350 295 337 341 333 297 326 306 327 310 284 292 284 311 316 304 334 321 317 324 308 339 345 331 311 326 330 334 311 305 335 303 334 312 327 308 354 312 285 326 277 302 319 302 323 328 342 347 369 325 339 304 357 335 370 378 316 319 329 360 321 340 340 315 332 319 346 350 335 343 344 350 348 328 350 334 311 335 352 341 381 341 361 335 354 335 357 315 346 348 347 330 322 341 355 328 336 368 374 357 379 334 331 360 354 364 341 371 365 366 372 357 359 355 348 369 346 357 350 358 367 368 389 357 364 369 374 385 367 369 341 330 377 332 362 345 400 358 352 380 364 383 384 355 351 365 382 355 377 383 325 363 385 340 376 376 374 390 344 422 375 362 370 360 376 386 386 397 360 371 373 392 399 351 403 366 406 396 353 377 375 396 365 402 396 370 423 363 397 378 373 371 359 350 437 389 396 363 406 362 409 398 408 425 406 386 399 398 392 394 405 412 393 423 411 432 415 474 493 478 502 494 489 471 528 505 469 543 526 532 529 550 527 527 562 554 557 566 535 544 597 587 572 562 545 577 579 561 594 540 514 555 525 534 475 475 488 468 501 462 407 450 419 442 427 445 434 374 408 412 385 379 388 342 403 355 364 376 359 372 344 353 331 362 337 379 361 334 362 377 359 384 367 323 361 323 342 334 338 336 388 348 379 362 324 317 323 321 329 369 333 331 319 303 292 313 321 304 324 332 294 303 318 321 324 307 320 295 304 291 315 306 306 314 330 301 331 292 329 296 292 322 320 307 336 326 282 291 334 241 337 287 270 312 274 278 256 278 302 288 280 263 278 287 293 305 315 297 287 282 336 277 272 312 287 304 280 292 282 283 264 294 285 319 270 279 271 247 310 282 276 256 272 288 269 241 286 306 281 275 305 258 293 286 262 269 278 247 312 273 288 261 306 266 317 264 275 293 273 292 271 288 290 298 278 259 277 299 275 286 296 276 302 274 260 286 297 265 222 302 283 290 258 275 287 301 293 277 279 283 281 262 285 297 290 261 294 296 275 284 300 320 286 248 243 275 297 296 290 282 239 281 295 271 279 267 271 230 293 311 276 285 280 282 267 324 281 314 289 287 289 293 276 271 312 295 265 275 327 290 276 277 273 299 300 300 289 257 276 316 278 287 266 304 315 279 281 281 322 280 280 291 280 305 245 308 290 328 286 285 299 280 275 300 273 302 305 267 303 311 246 299 241 280 268 284 279 276 267 281 245 292 299 295 298 285 276 287 268 264 269 278 277 301 232 277 283 249 281 265 267 238 280 249 303 265 271 262 276 282 337 248 262 271 274 284 273 250 267 265 225 261 270 234 256 241 246 250 267 235 248 258 249 242 246 275 231 266 246 248 258 273 232 224 256 244 240 249 229 256 213 213 241 246 227 260 226 227 240 227 224 235 258 230 260 259 234 247 205 250 227 237 227 257 225 220 232 244 229 207 233 241 248 225 235 208 219 228 229 194 218 215 220 229 221 205 225 192 206 227 211 237 238 234 208 210 201 230 193 205 205 265 222 209 239 210 223 208 245 217 221 227 208 235 216 232 203 199 216 229 209 208 204 228 190 188 209 214 198 198 232 222 223 207 224 193 194 192 237 220 194 216 215 213 226 202 192 204 212 190 214 195 195 219 182 180 197 184 216 191 178 181 192 199 183 195 218 201 208 206 206 192 193 197 202 217 214 200 181 182 190 209 207 216 192 193 217 185 205 194 194 194 191 196 230 208 196 190 192 184 186 195 196 187 207 222 205 184 200 191 224 195 214 222 227 205 221 198 213 180 209 176 190 198 205 196 178 195 190 189 203 180 183 205 189 192 178 195 211 205 200 221 219 217 190 195 210 189 219 202 193 203 209 187 198 174 187 228 197 188 188 184 211 200 218 187 211 206 193 216 190 185 214 186 190 183 180 210 183 195 201 201 196 200 187 175 221 187 197 165 180 213 203 200 212 193 184 188 202 172 181 174 202 162 204 193 228 176 166 199 179 197 197 187 191 164 232 206 199 204 166 184 194 226 186 187 188 201 192 179 180 189 177 181 181 207 174 220 222 218 188 207 175 207 201 176 202 179 187 179 184 195 162 193 196 193 191 195 181 185 219 198 199 184 195 195 198 155 192 190 192 217 206 194 201 224 201 195 156 195 208 186 189 188 199 186 203 184 198 193 198 202 190 170 187 196 163 192 146 185 181 190 200 178 233 196 203 215 221 183 198 194 188 215 219 209 196 219 197 196 209 234 192 233 225 197 198 243 232 206 204 210 217 206 216 208 202 212 226 232 210 214 213 195 221 220 220 234 204 244 205 234 236 250 231 223 241 189 235 257 270 261 236 269 272 273 277 249 266 283 324 318 320 323 309 333 379 332 357 355 342 385 386 392 419 446 462 453 482 469 435 508 503 486 507 528 574 545 535 591 604 598 574 541 583 604 628 587 609 593 570 575 631 633 595 571 641 604 608 575 547 605 551 542 548 510 515 486 511 466 476 434 445 391 435 391 413 418 406 380 354 372 353 318 345 347 342 353 306 312 349 274 309 301 245 283 271 222 287 249 267 268 264 205 297 285 233 234 220 223 232 208 246 218 249 210 250 262 238 224 215 231 216 233 215 234 233 229 229 229 200 221 191 261 265 223 211 241 237 227 212 240 246 231 242 228 238 233 204 241 210 202 234 219 238 238 221 232 243 224 227 232 195 221 193 221 230 228 212 240 230 220 200 229 213 223 221 236 218 225 209 225 221 216 227 257 239 234 259 209 263 265 264 271 250 257 278 237 219 271 234 248 244 238 249 275 246 250 309 279 243 244 276 268 227 263 267 273 263 276 280 250 287 262 299 285 281 277 288 273 299 283 307 286 339 326 308 309 327 293 303 293 303 280 309 326 306 305 270 303 331 323 306 286 296 312 246 285 297 310 278 320 273 302 282 300 273 264 293 273 312 290 302 298 287 308 301 264 240 288 291 263 296 292 279 284 291 308 283 315 318 319 281 339 320 325 325 299 288 289 313 276 302 300 316 330 334 247 323 284 291 317 319 315 297 315 312 330 308 306 317 333 303 312 301 306 345 343 329 302 307 330 321 315 324 362 326 341 329 312 361 325 309 334 306 337 345 343 347 346 314 380 342 324 337 349 350 371 341 332 330 355 330 355 348 336 361 371 394 367 374 353 412 384 367 364 356 381 383 364 424 378 379 359 378 371 370 388 347 343 389 359 364 396 383 384 418 366 392 410 391 385 392 380 351 393 408 355 382 352 424 378 413 370 407 386 415 393 378 366 371 423 420 396 398 390 393 418 399 398 370 399 412 396 392 344 411 413 391 385 396 365 389 403 388 392 374 389 358 414 358 389 393 405 414 418 388 408 359 379 405 432 402 352 402 393 430 422 401 374 398 365 426 416 384 428 395 364 395 354 355 427 368 366 390 385 390 370 398 361 366 384 386 356 400 378 355 377 361 356 347 356 380 387 377 364 334 384 319 377 343 335 401 352 316 345 316 329 369 374 335 357 321 365 317 313 361 325 336 337 354 311 338 326 307 329 358 329 314 318 291 320 321 314 289 310 305 337 302 314 322 299 301 325 296 319 300 338 298 270 293 275 304 277 274 246 281 323 276 268 292 264 284 235 278 303 295 298 259 257 232 285 278 278 257 272 242 270 264 297 277 281 265 269 225 244 245 270 303 268 259 263 242 266 275 245 261 221 241 260 250 245 274 245 249 226 222 232 221 261 232 244 226 236 238 248 229 234 218 231 209 241 211 209 221 214 204 228 223 238 216 217 237 214 202 226 222 226 206 229 193 208 207 220 203 198 219 214 189 239 194 210 210 197 239 197 218 216 218 205 180 212 217 237 204 207 204 185 186 218 204 202 219 191 209 194 195 197 182 185 174 249 214 199 188 211 196 189 207 215 202 211 190 186 210 168 230 169 194 187 176 205 163 182 194 189 183 184 185 190 195 205 171 188 176 211 187 194 186 171 161 186 183 168 168 179 180 204 203 177 180 183 188 181 167 172 168 179 195 187 157 179 165 199 199 192 184 180 189 180 192 184 171 169 165 172 159 164 157 191 172 170 175 154 173 185 155 178 180 178 183 151 179 147 148 176 190 174 171 177 149 160 175 175 186 177 183 159 191 176 182 177 170 176 185 168 187 173 142 179 172 179 168 196 158 156 155 180 175 167 157 157 160 171 155 152 180 162 177 182 151 164 165 152 142 150 150 160 152 177 159 152 151 188 174 156 174 156 150 148 153 158 159 154 160 147 161 150 174 145 163 162 135 164 158 155 160 168 166 175 141 147 168 148 161 157 183 164 158 155 154 160 150 159 150 163 159 160 150 161 161 176 168 167 165 152 151 169 163 154 148 147 160 170 168 144 153 147 157 172 153 147 137 153 150 170 156 147 152 149 162 169 161 148 149 159 159 146 144 178 149 153 138 120 149 135 140 167 154 143 158 150 149 147 153 131 133 165 163 162 144 155 151 151 171 144 142 167 141 152 169 148 156 165 149 154 145 139 130 158 149 166 141 159 144 169 158 153 167 140 156 146 156 158 136 146 135 163 167 168 146 159 141 140 135 148 151 169 152 136 142 135 149 145 147 142 150 163 135 163 133 165 141 160 171 147 157 129 139 149 151 143 134 156 147 141 142 153 150 138 156 171 175 141 140 124 152 162 118 145 144 153 148 158 133 170 132 167 161 150 147 158 142 145 143 157 166 156 157 162 154 149 153 127 145 152 143 177 140 176 179 146 168 131 126 155 139 141 142 152 145 164 161 142 171 150 154 139 159 157 137 162 151 128 150 149 183 145 140 161 149 155 155 131 134 133 157 127 138 170 138 173 139 135 147 151 145 169 147 158 140 152 155 139 153 140 121 125 159 147 154 142 154 132 124 152 157 165 133 159 161 147 130 162 176 142 154 144 133 174 167 163 152 158 164 171 175 144 128 136 162 144 158 150 143 146 142 150 142 163 148 121 152 138 132 159 155 145 156 140 142 154 153 146 153 148 155 145 145 141 148 170 145 150 158 137 169 140 139 152 163 160 151 139 157 156 155 146 154 160 162 154 137 156 170 130 151 146 151 147 144 150 149 137 134 148 125 132 157 148 138 126 141 140 167 135 153 166 155 146 148 135 157 149 172 144 164 148 149 131 155 141 134 132 147 143 126 129 164 175 156 158 155 156 147 141 128 196 149 140 143 115 162 158 142 143 147 150 145 150 161 166 156 145 134 158 166 135 140 148 151 162 137 155 148 121 151 154 159 137 145 163 161 120 146 144 136 137 152 138 144 137 138 130 135 132 146 158 148 160 128 164 154 138 162 141 182 159 152 141 147 125 145 136 140 131 145 133 159 138 116 148 138 147 177 143 153 152 178 135 149 146 151 159 147 143 162 149 166 163 153 151 158 152 159 160 170 144 149 152 172 166 155 159 172 142 143 167 173 187 156 161 169 159 151 171 168 148 148 173 157 172 159 169 179 150 150 206 182 160 147 170 193 150 179 161 184 189 159 182 171 179 173 217 207 195 211 212 229 239 237 238 250 242 263 257 273 262 220 247 273 283 294 263 288 257 279 291 286 298 280 304 295 310 312 331 314 305 297 340 314 365 279 303 297 291 297 299 284 304 317 345 288 290 318 293 300 285 266 277 275 236 247 247 240 263 265 237 222 250 233 203 244 233 230 179 214 214 215 226 202 184 184 153 217 176 181 187 179 161 172 192 182 174 177 181 159 153 153 161 168 154 145 156 181 174 151 164 149 145 157 150 135 178 147 160 144 149 157 163 152 172 163 171 165 156 134 165 146 125 170 148 183 149 143 157 155 147 140 115 169 137 163 127 160 152 145 153 164 158 173 132 141 150 145 158 148 144 154 169 155 145 144 146 132 146 144 123 127 141 137 152 131 144 136 132 146 163 153 149 143 146 144 153 162 137 125 153 163 149 129 125 139 150 142 114 141 144 162 143 130 152 143 143 131 145 130 158 164 163 152 159 144 157 129 133 128 149 126 137 143 162 128 174 140 141 162 134 143 144 135 129 151 136 127 133 163 144 146 129 145 155 126 150 163 159 120 155 136 148 135 132 143 135 133 140 149 145 148 142 174 142 124 142 136 139 150 158 136 139 146 130 134 133 145 147 146 132 143 134 145 139 134 122 143 140 157 144 156 129 150 141 153 155 140 145 152 152 158 146 157 162 146 125 136 141 153 141 163 146 136 151 152 140 132 154 135 148 147 133 169 143 141 124 130 131 141 132 128 131 139 146 146 145 135 125 149 160 137 139 154 146 143 130 153 154 146 145 148 158 152 151 122 129 138 129 159 143 151 143 127 126 147 146 161 141 124 141 141 167 137 169 142 134 140 154 151 120 142 132 143 141 158 118 148 152 146 148 144 149 130 147 140 125 145 146 149 154 161 136 143 130 126 136 138 131 121 144 143 148 146 145 136 131 151 161 135 156 144 146 138 148 140 161 140 132 133 156 146 157 140 144 159 137 144 144 138 138 153 159 146 138 146 132 154 157 139 143 146 147 146 169 112 145 143 149 175 146 147 172 143 133 149 157 157 151 164 148 172 128 143 142 136 149 159 146 152 120 131 139 149 143 153 157 150 146 163 148 159 142 147 147 150 151 152 161 140 141 144 138 162 160 157 155 158 146 140 149 122 157 152 138 157 144 155 147 149 124 137 167 139 135 149 167 165 164 151 174 173 143 166 149 147 151 155 132 148 162 164 150 147 148 165 153 138 151 147 130 147 155 144 145 152 145 186 169 143 145 144 116 131 126 152 148 153 162 180 173 144 151 161 153 165 143 157 155 144 144 151 152 155 145 148 157 145 124 150 170 147 139 153 132 161 143 148 152 167 168 146 132 130 151 151 182 155 134 173 164 148 164 141 149 143 149 152 142 146 151 160 151 130 150 159 139 157 173 170 171 172 155 172 163 165 159 158 168 167 163 168 146 168 159 156 153 151 162 136 171 169 157 153 147 188 150 168 171 155 147 157 168 174 175 164 162 152 173 158 162 181 142 174 154 172 164 180 182 158 177 161 162 151 151 169 151 169 172 148 164 179 152 180 166 170 181 191 169 170 212 163 163 178 186 162 171 168 158 181 174 194 176 173 174 175 191 201 188 182 175 173 196 176 197 181 179 207 179 190 182 205 184 191 213 214 196 226 205 232 207 217 218 232 217 208 247 249 247 256 243 232 250 266 279 260 248 311 279 286 292 323 298 310 317 316 329 343 361 346 355 352 373 395 366 378 387 371 400 394 388 420 381 424 387 402 433 419 416 403 431 457 451 406 470 484 444 429 434 441 443 463 447 452 467 426 430 430 454 443 420 439 380 372 406 413 390 419 396 381 409 399 372 379 333 340 332 358 354 322 350 335 350 318 296 306 280 326 304 266 291 311 288 256 282 200 271 232 242 218 270 229 210 225 231 198 219 211 207 212 209 202 220 210 207 178 190 199 205 198 203 204 172 177 198 184 195 194 187 175 181 167 197 194 207 182 165 185 190 161 183 187 165 183 165 164 168 178 182 156 181 172 159 168 176 177 185 185 164 175 184 175 181 184 191 179 200 154 184 169 180 176 167 155 161 165 174 176 221 166 194 160 142 153 163 177 154 200 170 188 199 187 196 183 172 159 136 183 140 165 182 177 165 180 161 156 166 137 172 172 161 167 153 163 164 157 176 165 183 188 178 158 172 145 170 171 185 168 156 181 162 182 164 173 178 172 161 192 158 188 167 173 170 177 169 169 177 176 161 163 175 147 167 177 174 189 172 169 186 160 169 186 158 187 172 160 159 174 177 162 174 164 170 164 172 168 174 176 152 200 177 194 162 207 155 168 155 180 181 170 184 161 184 187 195 167 161 183 178 145 155 174 173 173 192 155 169 183 185 147 163 221 156 207 166 169 176 160 174 195 188 205 165 170 160 170 155 195 206 173 173 181 193 164 170 178 178 192 202 180 161 175 170 176 196 215 196 183 189 201 178 190 197 193 198 173 201 161 193 181 168 176 171 161 194 193 192 194 203 215 165 188 169 205 181 196 195 163 193 161 185 196 202 170 200 214 168 179 197 232 214 193 184 194 199 185 182 177 188 200 182 206 185 195 174 183 182 197 196 184 196 204 172 228 200 217 210 210 220 199 203 199 198 209 204 194 202 222 179 189 212 186 201 194 214 202 190 204 202 190 197 186 207 191 184 174 183 214 205 203 193 202 180 190 181 212 216 192 191 203 189 181 192 201 199 183 179 218 201 188 208 206 216 197 188 195 218 180 187 198 202 209 215 199 214 193 208 226 196 198 216 185 179 204 198 201 210 204 233 211 208 193 198 197 205 195 196 203 185 203 219 202 178 187 182 228 209 220 192 219 188 174 200 197 191 225 225 210 211 200 214 201 200 205 194 207 188 191 201 210 184 224 214 246 198 199 203 216 210 206 204 214 212 223 220 214 228 202 215 209 217 204 228 215 193 227 219 210 215 204 213 197 230 193 235 214 207 215 244 218 193 224 262 224 225 225 265 206 236 225 230 204 214 232 233 232 209 249 234 235 247 227 216 224 242 225 217 230 260 222 218 228 262 227 224 219 216 231 235 198 222 234 209 244 195 245 241 231 235 217 211 233 221 215 226 205 213 210 209 228 231 191 208 224 263 236 183 189 263 202 236 208 211 223 216 215 191 225 221 210 198 210 192 192 205 194 207 201 211 198 211 208 211 205 239 219 233 204 175 185 217 190 182 208 218 206 210 202 206 203 197 218 192 182 206 235 225 194 184 196 192 179 202 189 186 189 189 196 209 190 202 195 189 188 178 190 201 195 206 197 213 180 192 167 209 174 191 184 181 205 181 203 195 193 178 183 167 174 189 189 196 207 195 180 208 183 199 173 188 182 182 183 187 176 189 183 170 179 185 175 190 191 172 176 203 177 200 190 211 189 182 201 181 161 159 190 191 193 200 178 174 179 193 184 168 195 190 171 190 165 203 164 169 181 205 184 181 200 186 187 184 180 181 187 196 178 167 166 166 185 174 177 178 171 212 164 166 181 188 186 191 158 214 183 183 184 188 187 184 179 212 197 158 199 187 173 164 178 174 181 166 186 209 181 187 198 212 188 171 206 195 179 172 168 191 180 163 184 189 175 163 209 178 176 185 169 213 194 191 182 193 203 166 176 191 173 176 163 168 176 162 170 174 146 163 193 169 160 191 174 179 157 196 150 176 187 167 175 174 182 195 155 190 172 177 178 176 164 171 170 183 186 212 200 180 191 182 193 182 184 171 159 186 181 177 186 182 200 167 177 182 168 180 189 158 155 187 181 170 208 180 167 171 174 193 179 172 167 185 174 171 184 207 185 169 182 189 140 165 156 169 165 143 180 157 166 173 182 176 198 174 182 170 178 171 207 189 175 177 200 176 173 201 201 173 174 180 168 204 154 189 164 152 195 161 190 199 170 190 180 192 184 199 190 205 185 170 182 180 173 198 183 167 186 186 172 183 194 182 183 168 191 183 218 209 179 201 203 154 186 174 205 177 181 199 187 186 181 171 194 179 225 192 211 170 188 198 187 176 201 175 187 183 197 205 204 190 203 198 195 204 168 187 173 208 194 197 170 200 194 200 209 176 161 184 182 164 203 198 181 151 181 187 200 196 192 216 185 181 177 170 184 179 167 218 184 188 202 191 186 186 195 182 192 205 173 191 191 226 184 192 208 177 188 190 183 192 191 170 179 189 173 211 183 221 198 201 192 230 209 203 182 196 196 195 173 206 227 190 191 204 199 201 204 200 206 190 187 195 197 201 179 218 208 190 192 204 175 188 223 201 210 202 205 217 199 239 196 214 199 187 193 230 230 211 184 218 204 207 196 224 214 203 218 230 215 185 194 196 235 192 212 240 185 256 206 218 200 220 169 225 221 196 191 200 217 215 228 259 197 196 216 211 204 218 221 219 206 226 218 232 226 229 232 219 189 216 203 234 233 233 242 224 214 231 221 260 227 232 235 234 240 211 230 232 230 218 245 222 239 233 219 239 221 245 258 222 234 228 259 231 248 249 233 243 256 230 239 237 256 227 217 246 258 257 246 240 224 237 220 233 260 248 236 274 245 232 239 257 225 296 276 260 250 246 256 248 269 263 273 265 260 259 263 259 273 263 267 292 265 293 285 270 271 262 265 273 274 287 300 256 299 261 290 275 290 281 288 301 288 283 288 297 273 287 308 303 313 297 293 320 303 303 311 293 323 367 346 322 307 334 299 278 344 336 340 333 317 307 323 321 299 355 335 325 349 324 351 348 304 350 303 358 335 374 357 374 395 346 364 361 387 364 376 372 419 393 412 409 386 408 450 406 394 430 452 438 480 436 463 453 458 492 466 477 469 477 503 497 465 463 468 529 510 522 528 538 508 528 560 517 500 495 535 537 505 478 512 512 491 535 516 495 542 480 516 507 492 492 538 531 522 512 476 485 493 519 552 464 506 514 487 472 516 494 508 483 510 517 443 498 458 511 488 497 503 507 539 501 478 489 470 500 502 471 471 522 458 489 491 456 478 478 464 464 496 489 484 464 441 464 427 488 474 465 448 477 431 457 454 497 525 456 506 508 507 487 483 448 468 528 452 509 483 475 446 513 507 479 483 461 500 457 481 461 473 475 460 444 474 451 442 486 437 432 476 451 472 467 517 455 411 435 447 465 463 488 464 389 479 465 428 453 451 436 463 450 427 431 441 443 460 419 427 435 443 469 423 433 408 431 424 380 386 405 406 412 413 379 420 404 387 412 425 376 427 396 364 399 427 338 388 381 369 399 368 357 374 357 372 372 386 396 383 360 345 381 357 337 368 325 382 333 334 354 332 380 381 381 341 354 353 337 361 343 327 346 339 353 342 353 327 342 324 358 329 343 353 348 348 358 376 304 352 359 394 372 349 381 389 403 365 400 348 371 406 381 431 454 390 447 446 431 389 449 455 446 475 425 436 456 435 476 426 442 468 442 431 432 454 432 427 391 400 421 507 401 395 407 400 373 383 388 386 362 393 387 365 349 379 379 353 337 341 352 299 332 334 384 336 280 315 326 274 294 273 297 284 295 290 231 283 270 273 263 272 283 263 277 259 221 235 227 222 232 228 265 213 200 226 206 207 199 237 206 211 244 207 209 213 217 192 180 214 214 194 187 195 197 200 205 168 175 191 183 185 193 222 199 197 196 197 188 175 179 198 160 193 176 197 179 199 176 199 165 164 177 185 182 167 199 172 183 174 160 182 170 200 169 172 182 181 175 168 149 169 164 186 159 164 181 148 162 184 178 172 161 158 167 190 183 150 169 170 190 170 165 171 173 183 165 173 173 165 168 186 139 161 172 175 161 177 149 147 138 168 174 160 139 161 155 186 155 184 158 167 155 146 152 162 181 143 149 143 140 139 150 164 172 174 164 160 133 184 165 158 155 160 146 190 154 156 148 152 123 147 167 159 151 148 166 155 161 161 156 150 141 195 133 167 153 160 136 148 149 145 162 149 144 156 145 150 140 144 153 135 156 158 156 134 143 148 144 140 129 153 162 149 116 154 133 164 138 144 151 137 131 156 141 145 146 148 143 131 146 149 139 147 155 138 140 167 149 154 137 163 125 157 158 123 167 124 141 141 141 130 171 143 158 130 119 132 163 148 147 144 145 128 132 142 131 142 135 165 148 155 175 134 134 177 126 123 140 160 147 162 140 152 147 120 164 146 164 145 146 134 169 141 141 124 127 150 135 121 133 168 118 139 120 133 155 137 146 149 134 144 153 147 136 150 154 162 155 145 113 143 115 150 151 116 137 129 126 134 149 120 140 151 131 149 152 131 142 147 130 148 146 126 128 143 139 157 135 144 143 129 135 146 135 144 143 136 144 119 146 129 123 145 128 146 136 125 119 120 126 149 123 137 151 131 130 142 125 134 144 162 116 130 127 138 108 123 117 141 135 121 117 126 123 133 131 122 139 134 115 137 134 142 127 126 124 122 142 130 146 128 145 112 130 121 147 104 140 133 124 114 127 112 147 104 107 114 133 123 125 105 141 147 111 119 135 131 109 113 125 163 116 139 111 114 105 149 127 124 115 127 140 160 145 136 123 112 145 138 116 133 133 124 131 143 135 113 137 124 137 137 143 120 123 136 127 134 132 142 134 118 143 121 126 133 133 144 101 117 120 145 137 110 119 112 124 107 138 122 129 119 123 111 105 117 139 127 119 142 130 136 154 133 125 119 127 151 123 143 118 126 140 128 135 117 132 125 130 124 131 118 134 130 119 133 118 120 127 127 139 129 135 127 138 126 129 152 150 125 134 120 119 139 131 124 119 143 146 120 110 129 139 149 138 115 129 132 102 123 132 128 132 113 130 122 144 129 128 139 119 118 116 107 116 128 109 140 127 119 123 141 145 118 139 116 114 110 112 113 115 115 130 102 114 98 120 146 127 131 127 135 116 136 111 135 117 128 123 100 128 114 139 123 120 132 124 121 117 129 114 118 130 134 135 144 114 122 134 155 116 127 118 104 104 130 143 116 120 134 133 145 127 113 129 123 133 136 129 139 115 124 114 110 107 126 114 133 151 126 137 113 131 139 125 134 114 122 113 112 106 117 125 135 124 149 128 129 119 102 132 128 126 136 116 110 109 129 127 125 124 125 131 121 107 142 144 151 134 128 122 118 118 121 102 105 121 112 127 124 117 134 136 112 138 125 122 149 131 132 114 115 125 114 125 122 114 131 136 111 121 123 134 111 135 114 122 116 132 100 128 125 119 131 137 113 134 151 135 137 129 148 116 133 131 118 121 123 98 133 128 148 119 140 121 129 132 119 114 112 131 141 129 115 132 131 135 139 134 136 127 126 133 121 129 123 113 111 106 147 118 129 118 119 131 121 112 121 122 116 107 122 118 126 111 137 110 120 124 117 127 124 136 128 146 124 130 134 124 111 119 96 109 131 144 133 150 126 115 126 110 136 126 133 122 124 150 121 115 109 126 113 129 127 132 120 116 124 133 120 127 129 137 109 140 130 115 130 116 117 141 131 118 109 136 117 141 107 145 117 126 140 121 135 119 111 119 139 126 128 111 121 112 129 134 129 123 136 131 129 125 136 137 120 116 129 106 121 134 127 125 128 126 127 123 128 147 135 142 127 119 128 127 139 131 135 146 127 141 146 116 141 115 132 130 124 145 126 122 141 138 136 118 122 113 136 124 120 113 125 112 112 130 123 120 133 142 130 121 127 143 107 123 121 110 134 124 108 122 119 138 125 108 102 112 113 125 119 144 142 119 121 133 128 136 133 124 146 116 122 131 115 120 135 117 108 133 117 127 126 138 135 139 123 109 131 123 113 123 119 120 138 124 142 135 134 106 122 129 123 142 121 112 140 110 131 113 122 140 133 132 118 133 115 122 147 131 114 126 117 135 109 133 116 124 114 123 116 108 136 99 117 114 138 133 115 134 112 129 121 127 133 143 142 129 105 120 107 111 96 131 104 119 137 118 135 126 127 131 122 113 134 122 127 127 96 126 129 139 124 121 115 115 113 109 128 138 127 110 124 119 127 128 122 107 112 131 125 132 125 124 115 140 125 133 115 124 122 126 126 116 135 110 136 133 120 131 123 122 128 130 118 113 104 113 122 124 103 128 136 126 140 116 103 127 135 126 115 125 100 109 132 118 112</intensities>
			</dataPoints>
		</scan>
	</xrdMeasurement>
</xrdMeasurements>
